Node_ID    S_Mises    Orig.X      Orig.Y      Orig.Z 
556 166.879516602 24.647888 0.0 0.20000032
557 166.879516602 24.647888 -0.6666667 0.20000032
564 166.879516602 21.830986 0.0 0.20000029
563 166.879516602 22.535212 -0.6666667 0.20000029
52 166.879516602 7.0422535 -2.0 0.10000009
53 166.879516602 6.338028 -1.3333334 0.10000008
60 166.879516602 4.2253523 -2.0 0.10000005
59 166.879516602 4.2253523 -1.3333334 0.10000005
550 167.399719238 14.788733 -0.6666667 0.10000019
551 167.399719238 14.084507 0.0 0.10000018
558 167.399719238 23.943663 0.0 0.2000003
557 167.399719238 24.647888 -0.6666667 0.20000032
46 167.399719238 9.154929 -2.0 0.10000012
47 167.399719238 8.450705 -1.3333334 0.100000106
54 167.399719238 6.338028 -2.0 0.10000008
53 167.399719238 6.338028 -1.3333334 0.10000008
843 167.399765015 28.169014 -2.0 0.20000036
844 167.399765015 27.464788 -0.6666667 0.20000035
851 167.399765015 26.056337 -2.0 0.20000033
850 167.399765015 26.056337 -1.3333334 0.20000033
339 167.399765015 10.56338 2.0 0.100000136
340 167.399765015 10.56338 1.3333334 0.100000136
347 167.399765015 9.154929 0.6666667 0.10000012
346 167.399765015 9.154929 1.3333334 0.10000012
850 166.879470825 26.056337 -1.3333334 0.20000033
851 166.879470825 26.056337 -2.0 0.20000033
858 166.879470825 35.21127 0.0 4.467624e-07
857 166.879470825 35.915493 -0.6666667 4.5569763e-07
346 166.879470825 9.154929 1.3333334 0.10000012
347 166.879470825 9.154929 0.6666667 0.10000012
354 166.879470825 7.0422535 2.0 0.10000009
353 166.879470825 7.746479 0.6666667 0.1000001
562 167.977310181 22.535212 0.0 0.20000029
563 167.977310181 22.535212 -0.6666667 0.20000029
570 167.977310181 19.71831 0.0 0.20000026
569 167.977310181 20.422535 -0.6666667 0.20000026
58 167.977310181 4.9295774 -2.0 0.10000006
59 167.977310181 4.2253523 -1.3333334 0.10000005
66 167.977310181 2.1126761 -2.0 0.10000003
65 167.977310181 2.1126761 -1.3333334 0.10000003
836 167.977264404 30.28169 -1.3333334 0.20000039
837 167.977264404 30.28169 -2.0 0.20000039
844 167.977264404 27.464788 -0.6666667 0.20000035
843 167.977264404 28.169014 -2.0 0.20000036
332 167.977264404 12.676056 0.0 0.100000165
333 167.977264404 11.971831 2.0 0.10000015
340 167.977264404 10.56338 1.3333334 0.100000136
339 167.977264404 10.56338 2.0 0.100000136
1048 168.499862671 31.690142 2.0 4.0208616e-07
1049 168.499862671 31.690142 1.3333334 4.0208616e-07
1056 168.499862671 36.619717 0.6666667 0.10000046
1055 168.499862671 36.619717 1.3333334 0.10000046
544 168.499862671 16.90141 -0.6666667 0.10000022
545 168.499862671 16.197184 0.0 0.10000021
552 168.499862671 14.084507 -0.6666667 0.10000018
551 168.499862671 14.084507 0.0 0.10000018
829 168.500030518 33.09859 -2.0 0.20000042
830 168.500030518 32.394367 -1.3333334 0.20000042
837 168.500030518 30.28169 -2.0 0.20000039
836 168.500030518 30.28169 -1.3333334 0.20000039
325 168.500030518 7.746479 1.3333334 9.828773e-08
326 168.500030518 7.746479 0.6666667 9.828773e-08
333 168.500030518 11.971831 2.0 0.10000015
332 168.500030518 12.676056 0.0 0.100000165
542 168.93762207 17.605635 -0.6666667 0.100000225
543 168.93762207 16.90141 0.0 0.10000022
550 168.93762207 14.788733 -0.6666667 0.10000019
549 168.93762207 14.788733 0.0 0.10000019
38 168.93762207 11.971831 -2.0 0.10000015
39 168.93762207 11.267606 -1.3333334 0.10000014
46 168.93762207 9.154929 -2.0 0.10000012
45 168.93762207 9.154929 -1.3333334 0.10000012
822 168.937530518 35.21127 -1.3333334 0.20000045
823 168.937530518 35.21127 -2.0 0.20000045
830 168.937530518 32.394367 -1.3333334 0.20000042
829 168.937530518 33.09859 -2.0 0.20000042
318 168.937530518 9.154929 2.0 1.1615821e-07
319 168.937530518 9.154929 1.3333334 1.1615821e-07
326 168.937530518 7.746479 0.6666667 9.828773e-08
325 168.937530518 7.746479 1.3333334 9.828773e-08
561 169.280273438 23.239437 -0.6666667 0.2000003
562 169.280273438 22.535212 0.0 0.20000029
569 169.280273438 20.422535 -0.6666667 0.20000026
568 169.280273438 20.422535 0.0 0.20000026
57 169.280273438 4.9295774 -1.3333334 0.10000006
58 169.280273438 4.9295774 -2.0 0.10000006
65 169.280273438 2.1126761 -1.3333334 0.10000003
64 169.280273438 2.8169014 -2.0 0.10000004
1270 169.280487061 38.028168 2.0 0.100000486
1271 169.280487061 38.028168 1.3333334 0.100000486
1278 169.280487061 42.957745 0.6666667 0.20000055
1277 169.280487061 42.957745 1.3333334 0.20000055
766 169.280487061 29.577465 -1.3333334 3.7528042e-07
767 169.280487061 29.577465 -2.0 3.7528042e-07
774 169.280487061 26.760563 -1.3333334 3.395394e-07
773 169.280487061 27.464788 -2.0 3.4847466e-07
540 169.437957764 18.309858 -0.6666667 0.10000023
541 169.437957764 17.605635 0.0 0.100000225
548 169.437957764 15.492958 -0.6666667 0.100000195
547 169.437957764 15.492958 0.0 0.100000195
36 169.437957764 0.0 -2.0 0.0
37 169.437957764 11.971831 -1.3333334 0.10000015
44 169.437957764 9.859155 -2.0 0.10000013
43 169.437957764 9.859155 -1.3333334 0.10000013
1277 169.437774658 42.957745 1.3333334 0.20000055
1278 169.437774658 42.957745 0.6666667 0.20000055
1285 169.437774658 40.84507 2.0 0.20000052
1284 169.437774658 41.549297 0.6666667 0.20000052
773 169.437774658 27.464788 -2.0 3.4847466e-07
774 169.437774658 26.760563 -1.3333334 3.395394e-07
781 169.437774658 24.647888 -2.0 3.1273368e-07
780 169.437774658 24.647888 -1.3333334 3.1273368e-07
537 169.790359497 19.014084 0.0 0.10000024
538 169.790359497 19.014084 -0.6666667 0.10000024
545 169.790359497 16.197184 0.0 0.10000021
544 169.790359497 16.90141 -0.6666667 0.10000022
33 169.790359497 0.70422536 -1.3333334 8.935248e-09
34 169.790359497 0.70422536 -2.0 8.935248e-09
41 169.790359497 10.56338 -1.3333334 0.100000136
40 169.790359497 11.267606 -2.0 0.10000014
1275 169.790679932 37.323944 0.6666667 0.10000047
1276 169.790679932 42.957745 2.0 0.20000055
1283 169.790679932 41.549297 1.3333334 0.20000052
1282 169.790679932 41.549297 2.0 0.20000052
771 169.790679932 28.169014 -2.0 3.574099e-07
772 169.790679932 27.464788 -1.3333334 3.4847466e-07
779 169.790679932 25.352112 -2.0 3.2166892e-07
778 169.790679932 25.352112 -1.3333334 3.2166892e-07
536 170.244110107 19.71831 -0.6666667 0.100000255
537 170.244110107 19.014084 0.0 0.10000024
544 170.244110107 16.90141 -0.6666667 0.10000022
543 170.244110107 16.90141 0.0 0.10000022
32 170.244110107 1.4084507 -2.0 1.7870496e-08
33 170.244110107 0.70422536 -1.3333334 8.935248e-09
40 170.244110107 11.267606 -2.0 0.10000014
39 170.244110107 11.267606 -1.3333334 0.10000014
1282 170.243774414 41.549297 2.0 0.20000052
1283 170.243774414 41.549297 1.3333334 0.20000052
1290 170.243774414 40.140846 0.6666667 0.20000051
1289 170.243774414 40.140846 1.3333334 0.20000051
778 170.243774414 25.352112 -1.3333334 3.2166892e-07
779 170.243774414 25.352112 -2.0 3.2166892e-07
786 170.243774414 35.21127 -1.3333334 0.10000045
785 170.243774414 35.915493 -2.0 0.100000456
523 171.073547363 23.943663 0.0 0.10000031
524 171.073547363 23.943663 -0.6666667 0.10000031
531 171.073547363 21.12676 0.0 0.10000027
530 171.073547363 21.830986 -0.6666667 0.10000028
19 171.073547363 5.633803 -1.3333334 7.1481985e-08
20 171.073547363 5.633803 -2.0 7.1481985e-08
27 171.073547363 2.8169014 -1.3333334 3.5740992e-08
26 171.073547363 3.5211267 -2.0 4.4676238e-08
786 171.073791504 35.21127 -1.3333334 0.10000045
787 171.073791504 35.21127 -2.0 0.10000045
794 171.073791504 32.394367 -1.3333334 0.10000041
793 171.073791504 33.09859 -2.0 0.10000042
282 171.073791504 4.9295774 2.0 0.20000006
283 171.073791504 4.9295774 1.3333334 0.20000006
290 171.073791504 3.5211267 0.6666667 0.20000005
289 171.073791504 3.5211267 1.3333334 0.20000005
1025 171.531295776 26.056337 0.6666667 0.20000033
1026 171.531295776 25.352112 2.0 0.20000033
1033 171.531295776 35.21127 2.0 4.467624e-07
1032 171.531295776 35.915493 0.6666667 4.5569763e-07
521 171.531295776 24.647888 0.0 0.100000314
522 171.531295776 24.647888 -0.6666667 0.100000314
529 171.531295776 21.830986 0.0 0.10000028
528 171.531295776 22.535212 -0.6666667 0.100000285
1297 171.530975342 38.028168 2.0 0.20000048
1298 171.530975342 38.028168 1.3333334 0.20000048
1305 171.530975342 46.478874 0.6666667 5.8972637e-07
1304 171.530975342 46.478874 1.3333334 5.8972637e-07
793 171.530975342 33.09859 -2.0 0.10000042
794 171.530975342 32.394367 -1.3333334 0.10000041
801 171.530975342 30.28169 -2.0 0.10000039
800 171.530975342 30.28169 -1.3333334 0.10000039
1019 172.2684021 27.464788 0.6666667 0.20000035
1020 172.2684021 26.760563 2.0 0.20000035
1027 172.2684021 25.352112 1.3333334 0.20000033
1026 172.2684021 25.352112 2.0 0.20000033
515 172.2684021 14.084507 0.0 1.7870495e-07
516 172.2684021 14.084507 -0.6666667 1.7870495e-07
523 172.2684021 23.943663 0.0 0.10000031
522 172.2684021 24.647888 -0.6666667 0.100000314
1304 172.268661499 46.478874 1.3333334 5.8972637e-07
1305 172.268661499 46.478874 0.6666667 5.8972637e-07
1312 172.268661499 45.774647 0.6666667 5.807911e-07
1311 172.268661499 45.774647 1.3333334 5.807911e-07
800 172.268661499 30.28169 -1.3333334 0.10000039
801 172.268661499 30.28169 -2.0 0.10000039
808 172.268661499 27.464788 -0.6666667 0.10000035
807 172.268661499 28.169014 -2.0 0.10000036
534 171.821334839 20.422535 -0.6666667 0.10000026
535 171.821334839 19.71831 0.0 0.100000255
542 171.821334839 17.605635 -0.6666667 0.100000225
541 171.821334839 17.605635 0.0 0.100000225
30 171.821334839 2.1126761 -2.0 2.6805743e-08
31 171.821334839 1.4084507 -1.3333334 1.7870496e-08
38 171.821334839 11.971831 -2.0 0.10000015
37 171.821334839 11.971831 -1.3333334 0.10000015
1311 171.820465088 45.774647 1.3333334 5.807911e-07
1312 171.820465088 45.774647 0.6666667 5.807911e-07
1319 171.820465088 45.070423 0.6666667 5.718559e-07
1318 171.820465088 45.070423 1.3333334 5.718559e-07
807 171.820465088 28.169014 -2.0 0.10000036
808 171.820465088 27.464788 -0.6666667 0.10000035
815 171.820465088 26.056337 -2.0 0.10000033
814 171.820465088 26.056337 -1.3333334 0.10000033
1014 171.985687256 28.169014 2.0 0.20000036
1015 171.985687256 28.169014 1.3333334 0.20000036
1022 171.985687256 26.760563 0.6666667 0.20000035
1021 171.985687256 26.760563 1.3333334 0.20000035
510 171.985687256 16.197184 0.0 2.055107e-07
511 171.985687256 16.197184 -0.6666667 2.055107e-07
518 171.985687256 13.380281 -0.6666667 1.697697e-07
517 171.985687256 13.380281 0.0 1.697697e-07
815 171.985580444 26.056337 -2.0 0.10000033
816 171.985580444 25.352112 -1.3333334 0.10000032
823 171.985580444 35.21127 -2.0 0.20000045
822 171.985580444 35.21127 -1.3333334 0.20000045
311 171.985580444 11.267606 0.6666667 1.4296397e-07
312 171.985580444 10.56338 2.0 1.3402871e-07
319 171.985580444 9.154929 1.3333334 1.1615821e-07
318 171.985580444 9.154929 2.0 1.1615821e-07
1011 169.684814453 28.87324 2.0 0.20000038
1012 169.684814453 28.87324 1.3333334 0.20000038
1019 169.684814453 27.464788 0.6666667 0.20000035
1018 169.684814453 27.464788 1.3333334 0.20000035
507 169.684814453 17.605635 -0.6666667 2.233812e-07
508 169.684814453 16.90141 0.0 2.1444595e-07
515 169.684814453 14.084507 0.0 1.7870495e-07
514 169.684814453 14.788733 -0.6666667 1.876402e-07
762 169.675765991 30.985916 -1.3333334 3.931509e-07
763 169.675765991 30.985916 -2.0 3.931509e-07
770 169.675765991 28.169014 -1.3333334 3.574099e-07
769 169.675765991 28.87324 -2.0 3.6634515e-07
258 169.675765991 3.5211267 2.0 0.100000046
259 169.675765991 3.5211267 1.3333334 0.100000046
266 169.675765991 2.1126761 0.6666667 0.10000003
265 169.675765991 2.1126761 1.3333334 0.10000003
526 171.463500977 23.239437 -0.6666667 0.1000003
527 171.463500977 22.535212 0.0 0.100000285
534 171.463500977 20.422535 -0.6666667 0.10000026
533 171.463500977 20.422535 0.0 0.10000026
22 171.463500977 4.9295774 -2.0 6.254673e-08
23 171.463500977 4.2253523 -1.3333334 5.361149e-08
30 171.463500977 2.1126761 -2.0 2.6805743e-08
29 171.463500977 2.1126761 -1.3333334 2.6805743e-08
1237 171.461990356 38.732395 2.0 4.9143864e-07
1238 171.461990356 38.732395 1.3333334 4.9143864e-07
1245 171.461990356 37.323944 0.6666667 4.7356812e-07
1244 171.461990356 37.323944 1.3333334 4.7356812e-07
733 171.461990356 21.830986 2.0 0.20000029
734 171.461990356 21.830986 1.3333334 0.20000029
741 171.461990356 20.422535 0.6666667 0.20000026
740 171.461990356 20.422535 1.3333334 0.20000026
505 167.617050171 18.309858 -0.6666667 2.3231642e-07
506 167.617050171 17.605635 0.0 2.233812e-07
513 167.617050171 15.492958 -0.6666667 1.9657546e-07
512 167.617050171 15.492958 0.0 1.9657546e-07
1 167.617050171 11.971831 -1.3333334 1.5189921e-07
2 167.617050171 11.971831 -2.0 1.5189921e-07
9 167.617050171 9.154929 -1.3333334 1.1615821e-07
8 167.617050171 9.859155 -2.0 1.2509346e-07
720 167.629928589 19.014084 1.3333334 0.10000024
721 167.629928589 19.014084 0.6666667 0.10000024
728 167.629928589 23.239437 1.3333334 0.2000003
727 167.629928589 23.239437 2.0 0.2000003
216 167.629928589 -2.5376103e-09 -0.6666667 0.2
217 167.629928589 6.338028 2.0 8.041723e-08
224 167.629928589 4.9295774 0.6666667 6.254673e-08
223 167.629928589 4.9295774 1.3333334 6.254673e-08
1009 160.972122192 29.577465 1.3333334 0.20000038
1010 160.972122192 29.577465 0.6666667 0.20000038
1017 160.972122192 27.464788 2.0 0.20000035
1016 160.972122192 28.169014 0.6666667 0.20000036
505 160.972122192 18.309858 -0.6666667 2.3231642e-07
506 160.972122192 17.605635 0.0 2.233812e-07
513 160.972122192 15.492958 -0.6666667 1.9657546e-07
512 160.972122192 15.492958 0.0 1.9657546e-07
533 168.401260376 20.422535 0.0 0.10000026
534 168.401260376 20.422535 -0.6666667 0.10000026
541 168.401260376 17.605635 0.0 0.100000225
540 168.401260376 18.309858 -0.6666667 0.10000023
29 168.401260376 2.1126761 -1.3333334 2.6805743e-08
30 168.401260376 2.1126761 -2.0 2.6805743e-08
37 168.401260376 11.971831 -1.3333334 0.10000015
36 168.401260376 0.0 -2.0 0.0
1224 160.982315063 42.25352 0.6666667 5.3611484e-07
1225 160.982315063 41.549297 2.0 5.271796e-07
1232 160.982315063 40.140846 1.3333334 5.0930913e-07
1231 160.982315063 40.140846 2.0 5.0930913e-07
720 160.982315063 19.014084 1.3333334 0.10000024
721 160.982315063 19.014084 0.6666667 0.10000024
728 160.982315063 23.239437 1.3333334 0.2000003
727 160.982315063 23.239437 2.0 0.2000003
741 168.40032959 20.422535 0.6666667 0.20000026
742 168.40032959 19.71831 2.0 0.20000026
749 168.40032959 35.915493 -2.0 4.5569763e-07
748 168.40032959 35.915493 -1.3333334 4.5569763e-07
237 168.40032959 1.4084507 2.0 1.7870496e-08
238 168.40032959 1.4084507 1.3333334 1.7870496e-08
245 168.40032959 0.0 0.6666667 0.0
244 168.40032959 0.0 1.3333334 0.0
512 155.606262207 15.492958 0.0 1.9657546e-07
513 155.606262207 15.492958 -0.6666667 1.9657546e-07
520 155.606262207 12.676056 -0.6666667 1.6083446e-07
519 155.606262207 12.676056 0.0 1.6083446e-07
8 155.606262207 9.859155 -2.0 1.2509346e-07
9 155.606262207 9.154929 -1.3333334 1.1615821e-07
16 155.606262207 7.0422535 -2.0 8.9352476e-08
15 155.606262207 7.0422535 -1.3333334 8.9352476e-08
1030 164.290542603 35.915493 2.0 4.5569763e-07
1031 164.290542603 35.915493 1.3333334 4.5569763e-07
1038 164.290542603 34.507042 0.6666667 4.3782714e-07
1037 164.290542603 34.507042 1.3333334 4.3782714e-07
526 164.290542603 23.239437 -0.6666667 0.1000003
527 164.290542603 22.535212 0.0 0.100000285
534 164.290542603 20.422535 -0.6666667 0.10000026
533 164.290542603 20.422535 0.0 0.10000026
727 155.620315552 23.239437 2.0 0.2000003
728 155.620315552 23.239437 1.3333334 0.2000003
735 155.620315552 21.830986 0.6666667 0.20000029
734 155.620315552 21.830986 1.3333334 0.20000029
223 155.620315552 4.9295774 1.3333334 6.254673e-08
224 155.620315552 4.9295774 0.6666667 6.254673e-08
231 155.620315552 2.8169014 2.0 3.5740992e-08
230 155.620315552 3.5211267 0.6666667 4.4676238e-08
1245 164.291351318 37.323944 0.6666667 4.7356812e-07
1246 164.291351318 36.619717 2.0 4.6463285e-07
1253 164.291351318 42.25352 1.3333334 0.10000054
1252 164.291351318 42.25352 2.0 0.10000054
741 164.291351318 20.422535 0.6666667 0.20000026
742 164.291351318 19.71831 2.0 0.20000026
749 164.291351318 35.915493 -2.0 4.5569763e-07
748 164.291351318 35.915493 -1.3333334 4.5569763e-07
508 170.014862061 16.90141 0.0 2.1444595e-07
509 170.014862061 16.90141 -0.6666667 2.1444595e-07
516 170.014862061 14.084507 -0.6666667 1.7870495e-07
515 170.014862061 14.084507 0.0 1.7870495e-07
4 170.014862061 11.267606 -2.0 1.4296397e-07
5 170.014862061 10.56338 -1.3333334 1.3402871e-07
12 170.014862061 8.450705 -2.0 1.0722298e-07
11 170.014862061 8.450705 -1.3333334 1.0722298e-07
1259 170.007644653 40.84507 1.3333334 0.100000516
1260 170.007644653 40.84507 0.6666667 0.100000516
1267 170.007644653 38.732395 2.0 0.10000049
1266 170.007644653 39.43662 0.6666667 0.1000005
755 170.007644653 33.80282 -2.0 4.2889192e-07
756 170.007644653 33.09859 -1.3333334 4.1995665e-07
763 170.007644653 30.985916 -2.0 3.931509e-07
762 170.007644653 30.985916 -1.3333334 3.931509e-07
1012 167.601074219 28.87324 1.3333334 0.20000038
1013 167.601074219 28.87324 0.6666667 0.20000038
1020 167.601074219 26.760563 2.0 0.20000035
1019 167.601074219 27.464788 0.6666667 0.20000035
508 167.601074219 16.90141 0.0 2.1444595e-07
509 167.601074219 16.90141 -0.6666667 2.1444595e-07
516 167.601074219 14.084507 -0.6666667 1.7870495e-07
515 167.601074219 14.084507 0.0 1.7870495e-07
813 167.594726562 26.760563 -2.0 0.100000344
814 167.594726562 26.056337 -1.3333334 0.10000033
821 167.594726562 35.915493 -2.0 0.20000046
820 167.594726562 35.915493 -1.3333334 0.20000046
309 167.594726562 11.267606 2.0 1.4296397e-07
310 167.594726562 11.267606 1.3333334 1.4296397e-07
317 167.594726562 9.859155 0.6666667 1.2509346e-07
316 167.594726562 9.859155 1.3333334 1.2509346e-07
513 170.85345459 15.492958 -0.6666667 1.9657546e-07
514 170.85345459 14.788733 -0.6666667 1.876402e-07
521 170.85345459 24.647888 0.0 0.100000314
520 170.85345459 12.676056 -0.6666667 1.6083446e-07
9 170.85345459 9.154929 -1.3333334 1.1615821e-07
10 170.85345459 9.154929 -2.0 1.1615821e-07
17 170.85345459 6.338028 -1.3333334 8.041723e-08
16 170.85345459 7.0422535 -2.0 8.9352476e-08
1319 170.852783203 45.070423 0.6666667 5.718559e-07
1320 170.852783203 45.070423 0.0 5.718559e-07
1327 170.852783203 44.366196 0.0 5.629206e-07
1326 170.852783203 44.366196 0.6666667 5.629206e-07
815 170.852783203 26.056337 -2.0 0.10000033
816 170.852783203 25.352112 -1.3333334 0.10000032
823 170.852783203 35.21127 -2.0 0.20000045
822 170.852783203 35.21127 -1.3333334 0.20000045
1017 168.911178589 27.464788 2.0 0.20000035
1018 168.911178589 27.464788 1.3333334 0.20000035
1025 168.911178589 26.056337 0.6666667 0.20000033
1024 168.911178589 26.056337 1.3333334 0.20000033
513 168.911178589 15.492958 -0.6666667 1.9657546e-07
514 168.911178589 14.788733 -0.6666667 1.876402e-07
521 168.911178589 24.647888 0.0 0.100000314
520 168.911178589 12.676056 -0.6666667 1.6083446e-07
1320 168.908920288 45.070423 0.0 5.718559e-07
1321 168.908920288 45.070423 -0.6666667 5.718559e-07
1328 168.908920288 44.366196 -0.6666667 5.629206e-07
1327 168.908920288 44.366196 0.0 5.629206e-07
816 168.908920288 25.352112 -1.3333334 0.10000032
817 168.908920288 25.352112 -2.0 0.10000032
824 168.908920288 34.507042 -1.3333334 0.20000044
823 168.908920288 35.21127 -2.0 0.20000045
1031 170.657836914 35.915493 1.3333334 4.5569763e-07
1032 170.657836914 35.915493 0.6666667 4.5569763e-07
1039 170.657836914 33.80282 2.0 4.2889192e-07
1038 170.657836914 34.507042 0.6666667 4.3782714e-07
527 170.657836914 22.535212 0.0 0.100000285
528 170.657836914 22.535212 -0.6666667 0.100000285
535 170.657836914 19.71831 0.0 0.100000255
534 170.657836914 20.422535 -0.6666667 0.10000026
808 170.657150269 27.464788 -0.6666667 0.10000035
809 170.657150269 27.464788 -1.3333334 0.10000035
816 170.657150269 25.352112 -1.3333334 0.10000032
815 170.657150269 26.056337 -2.0 0.10000033
304 170.657150269 -2.5376103e-09 1.3333334 0.2
305 170.657150269 -2.5376103e-09 0.6666667 0.2
312 170.657150269 10.56338 2.0 1.3402871e-07
311 170.657150269 11.267606 0.6666667 1.4296397e-07
1038 167.667327881 34.507042 0.6666667 4.3782714e-07
1039 167.667327881 33.80282 2.0 4.2889192e-07
1046 167.667327881 32.394367 1.3333334 4.110214e-07
1045 167.667327881 32.394367 2.0 4.110214e-07
534 167.667327881 20.422535 -0.6666667 0.10000026
535 167.667327881 19.71831 0.0 0.100000255
542 167.667327881 17.605635 -0.6666667 0.100000225
541 167.667327881 17.605635 0.0 0.100000225
516 170.302429199 14.084507 -0.6666667 1.7870495e-07
517 170.302429199 13.380281 0.0 1.697697e-07
524 170.302429199 23.943663 -0.6666667 0.10000031
523 170.302429199 23.943663 0.0 0.10000031
12 170.302429199 8.450705 -2.0 1.0722298e-07
13 170.302429199 7.746479 -1.3333334 9.828773e-08
20 170.302429199 5.633803 -2.0 7.1481985e-08
19 170.302429199 5.633803 -1.3333334 7.1481985e-08
801 170.302703857 30.28169 -2.0 0.10000039
802 170.302703857 29.577465 -1.3333334 0.100000374
809 170.302703857 27.464788 -1.3333334 0.10000035
808 170.302703857 27.464788 -0.6666667 0.10000035
297 170.302703857 1.4084507 2.0 0.20000002
298 170.302703857 1.4084507 1.3333334 0.20000002
305 170.302703857 -2.5376103e-09 0.6666667 0.2
304 170.302703857 -2.5376103e-09 1.3333334 0.2
517 166.73600769 13.380281 0.0 1.697697e-07
518 166.73600769 13.380281 -0.6666667 1.697697e-07
525 166.73600769 23.239437 0.0 0.1000003
524 166.73600769 23.943663 -0.6666667 0.10000031
13 166.73600769 7.746479 -1.3333334 9.828773e-08
14 166.73600769 7.746479 -2.0 9.828773e-08
21 166.73600769 4.9295774 -1.3333334 6.254673e-08
20 166.73600769 5.633803 -2.0 7.1481985e-08
1305 166.735900879 46.478874 0.6666667 5.8972637e-07
1306 166.735900879 46.478874 0.0 5.8972637e-07
1313 166.735900879 45.774647 0.0 5.807911e-07
1312 166.735900879 45.774647 0.6666667 5.807911e-07
801 166.735900879 30.28169 -2.0 0.10000039
802 166.735900879 29.577465 -1.3333334 0.100000374
809 166.735900879 27.464788 -1.3333334 0.10000035
808 166.735900879 27.464788 -0.6666667 0.10000035
528 168.869125366 22.535212 -0.6666667 0.100000285
529 168.869125366 21.830986 0.0 0.10000028
536 168.869125366 19.71831 -0.6666667 0.100000255
535 168.869125366 19.71831 0.0 0.100000255
24 168.869125366 4.2253523 -2.0 5.361149e-08
25 168.869125366 3.5211267 -1.3333334 4.4676238e-08
32 168.869125366 1.4084507 -2.0 1.7870496e-08
31 168.869125366 1.4084507 -1.3333334 1.7870496e-08
794 168.868545532 32.394367 -1.3333334 0.10000041
795 168.868545532 32.394367 -2.0 0.10000041
802 168.868545532 29.577465 -1.3333334 0.100000374
801 168.868545532 30.28169 -2.0 0.10000039
290 168.868545532 3.5211267 0.6666667 0.20000005
291 168.868545532 2.8169014 2.0 0.20000003
298 168.868545532 1.4084507 1.3333334 0.20000002
297 168.868545532 1.4084507 2.0 0.20000002
795 165.697784424 32.394367 -2.0 0.10000041
796 165.697784424 31.690142 -1.3333334 0.100000404
803 165.697784424 29.577465 -2.0 0.100000374
802 165.697784424 29.577465 -1.3333334 0.100000374
291 165.697784424 2.8169014 2.0 0.20000003
292 165.697784424 2.8169014 1.3333334 0.20000003
299 165.697784424 1.4084507 0.6666667 0.20000002
298 165.697784424 1.4084507 1.3333334 0.20000002
524 167.838668823 23.943663 -0.6666667 0.10000031
525 167.838668823 23.239437 0.0 0.1000003
532 167.838668823 21.12676 -0.6666667 0.10000027
531 167.838668823 21.12676 0.0 0.10000027
20 167.838668823 5.633803 -2.0 7.1481985e-08
21 167.838668823 4.9295774 -1.3333334 6.254673e-08
28 167.838668823 2.8169014 -2.0 3.5740992e-08
27 167.838668823 2.8169014 -1.3333334 3.5740992e-08
1290 167.838928223 40.140846 0.6666667 0.20000051
1291 167.838928223 39.43662 2.0 0.20000051
1298 167.838928223 38.028168 1.3333334 0.20000048
1297 167.838928223 38.028168 2.0 0.20000048
786 167.838928223 35.21127 -1.3333334 0.10000045
787 167.838928223 35.21127 -2.0 0.10000045
794 167.838928223 32.394367 -1.3333334 0.10000041
793 167.838928223 33.09859 -2.0 0.10000042
1027 165.170593262 25.352112 1.3333334 0.20000033
1028 165.170593262 25.352112 0.6666667 0.20000033
1035 165.170593262 35.21127 0.6666667 4.467624e-07
1034 165.170593262 35.21127 1.3333334 4.467624e-07
523 165.170593262 23.943663 0.0 0.10000031
524 165.170593262 23.943663 -0.6666667 0.10000031
531 165.170593262 21.12676 0.0 0.10000027
530 165.170593262 21.830986 -0.6666667 0.10000028
787 165.170593262 35.21127 -2.0 0.10000045
788 165.170593262 34.507042 -1.3333334 0.10000044
795 165.170593262 32.394367 -2.0 0.10000041
794 165.170593262 32.394367 -1.3333334 0.10000041
283 165.170593262 4.9295774 1.3333334 0.20000006
284 165.170593262 4.9295774 0.6666667 0.20000006
291 165.170593262 2.8169014 2.0 0.20000003
290 165.170593262 3.5211267 0.6666667 0.20000005
1040 167.126403809 33.80282 1.3333334 4.2889192e-07
1041 167.126403809 33.80282 0.6666667 4.2889192e-07
1048 167.126403809 31.690142 2.0 4.0208616e-07
1047 167.126403809 32.394367 0.6666667 4.110214e-07
536 167.126403809 19.71831 -0.6666667 0.100000255
537 167.126403809 19.014084 0.0 0.10000024
544 167.126403809 16.90141 -0.6666667 0.10000022
543 167.126403809 16.90141 0.0 0.10000022
779 167.126190186 25.352112 -2.0 3.2166892e-07
780 167.126190186 24.647888 -1.3333334 3.1273368e-07
787 167.126190186 35.21127 -2.0 0.10000045
786 167.126190186 35.21127 -1.3333334 0.10000045
275 167.126190186 -1.2688052e-09 0.6666667 0.1
276 167.126190186 6.338028 2.0 0.20000008
283 167.126190186 4.9295774 1.3333334 0.20000006
282 167.126190186 4.9295774 2.0 0.20000006
530 164.809844971 21.830986 -0.6666667 0.10000028
531 164.809844971 21.12676 0.0 0.10000027
538 164.809844971 19.014084 -0.6666667 0.10000024
537 164.809844971 19.014084 0.0 0.10000024
26 164.809844971 3.5211267 -2.0 4.4676238e-08
27 164.809844971 2.8169014 -1.3333334 3.5740992e-08
34 164.809844971 0.70422536 -2.0 8.935248e-09
33 164.809844971 0.70422536 -1.3333334 8.935248e-09
538 166.86517334 19.014084 -0.6666667 0.10000024
539 166.86517334 18.309858 0.0 0.10000023
546 166.86517334 16.197184 -0.6666667 0.10000021
545 166.86517334 16.197184 0.0 0.10000021
34 166.86517334 0.70422536 -2.0 8.935248e-09
35 166.86517334 0.0 -1.3333334 0.0
42 166.86517334 10.56338 -2.0 0.100000136
41 166.86517334 10.56338 -1.3333334 0.100000136
764 166.86529541 30.28169 -1.3333334 3.8421567e-07
765 166.86529541 30.28169 -2.0 3.8421567e-07
772 166.86529541 27.464788 -1.3333334 3.4847466e-07
771 166.86529541 28.169014 -2.0 3.574099e-07
260 166.86529541 3.5211267 0.6666667 0.100000046
261 166.86529541 2.8169014 2.0 0.10000004
268 166.86529541 1.4084507 1.3333334 0.10000002
267 166.86529541 1.4084507 2.0 0.10000002
1041 164.651092529 33.80282 0.6666667 4.2889192e-07
1042 164.651092529 33.09859 2.0 4.1995665e-07
1049 164.651092529 31.690142 1.3333334 4.0208616e-07
1048 164.651092529 31.690142 2.0 4.0208616e-07
537 164.651092529 19.014084 0.0 0.10000024
538 164.651092529 19.014084 -0.6666667 0.10000024
545 164.651092529 16.197184 0.0 0.10000021
544 164.651092529 16.90141 -0.6666667 0.10000022
1268 164.651092529 38.732395 1.3333334 0.10000049
1269 164.651092529 38.732395 0.6666667 0.10000049
1276 164.651092529 42.957745 2.0 0.20000055
1275 164.651092529 37.323944 0.6666667 0.10000047
764 164.651092529 30.28169 -1.3333334 3.8421567e-07
765 164.651092529 30.28169 -2.0 3.8421567e-07
772 164.651092529 27.464788 -1.3333334 3.4847466e-07
771 164.651092529 28.169014 -2.0 3.574099e-07
1044 166.75302124 33.09859 0.6666667 4.1995665e-07
1045 166.75302124 32.394367 2.0 4.110214e-07
1052 166.75302124 30.985916 1.3333334 3.931509e-07
1051 166.75302124 30.985916 2.0 3.931509e-07
540 166.75302124 18.309858 -0.6666667 0.10000023
541 166.75302124 17.605635 0.0 0.100000225
548 166.75302124 15.492958 -0.6666667 0.100000195
547 166.75302124 15.492958 0.0 0.100000195
765 166.752853394 30.28169 -2.0 3.8421567e-07
766 166.752853394 29.577465 -1.3333334 3.7528042e-07
773 166.752853394 27.464788 -2.0 3.4847466e-07
772 166.752853394 27.464788 -1.3333334 3.4847466e-07
261 166.752853394 2.8169014 2.0 0.10000004
262 166.752853394 2.8169014 1.3333334 0.10000004
269 166.752853394 1.4084507 0.6666667 0.10000002
268 166.752853394 1.4084507 1.3333334 0.10000002
547 164.545578003 15.492958 0.0 0.100000195
548 164.545578003 15.492958 -0.6666667 0.100000195
555 164.545578003 12.676056 -0.6666667 0.100000165
554 164.545578003 13.380281 -0.6666667 0.10000017
43 164.545578003 9.859155 -1.3333334 0.10000013
44 164.545578003 9.859155 -2.0 0.10000013
51 164.545578003 7.0422535 -1.3333334 0.10000009
50 164.545578003 7.746479 -2.0 0.1000001
1269 164.545455933 38.732395 0.6666667 0.10000049
1270 164.545455933 38.028168 2.0 0.100000486
1277 164.545455933 42.957745 1.3333334 0.20000055
1276 164.545455933 42.957745 2.0 0.20000055
765 164.545455933 30.28169 -2.0 3.8421567e-07
766 164.545455933 29.577465 -1.3333334 3.7528042e-07
773 164.545455933 27.464788 -2.0 3.4847466e-07
772 164.545455933 27.464788 -1.3333334 3.4847466e-07
1065 166.724731445 34.507042 0.6666667 0.10000044
1066 166.724731445 33.80282 2.0 0.100000426
1073 166.724731445 32.394367 1.3333334 0.10000041
1072 166.724731445 32.394367 2.0 0.10000041
561 166.724731445 23.239437 -0.6666667 0.2000003
562 166.724731445 22.535212 0.0 0.20000029
569 166.724731445 20.422535 -0.6666667 0.20000026
568 166.724731445 20.422535 0.0 0.20000026
1263 166.724822998 40.140846 0.6666667 0.10000051
1264 166.724822998 39.43662 2.0 0.1000005
1271 166.724822998 38.028168 1.3333334 0.100000486
1270 166.724822998 38.028168 2.0 0.100000486
759 166.724822998 32.394367 -2.0 4.110214e-07
760 166.724822998 31.690142 -1.3333334 4.0208616e-07
767 166.724822998 29.577465 -2.0 3.7528042e-07
766 166.724822998 29.577465 -1.3333334 3.7528042e-07
568 164.579727173 20.422535 0.0 0.20000026
569 164.579727173 20.422535 -0.6666667 0.20000026
576 164.579727173 17.605635 0.0 0.20000023
575 164.579727173 18.309858 -0.6666667 0.20000024
64 164.579727173 2.8169014 -2.0 0.10000004
65 164.579727173 2.1126761 -1.3333334 0.10000003
72 164.579727173 -1.2688052e-09 -2.0 0.1
71 164.579727173 -1.2688052e-09 -1.3333334 0.1
820 164.579742432 35.915493 -1.3333334 0.20000046
821 164.579742432 35.915493 -2.0 0.20000046
828 164.579742432 33.09859 -1.3333334 0.20000042
827 164.579742432 33.80282 -2.0 0.20000044
316 164.579742432 9.859155 1.3333334 1.2509346e-07
317 164.579742432 9.859155 0.6666667 1.2509346e-07
324 164.579742432 7.746479 2.0 9.828773e-08
323 164.579742432 8.450705 0.6666667 1.0722298e-07
1046 166.635101318 32.394367 1.3333334 4.110214e-07
1047 166.635101318 32.394367 0.6666667 4.110214e-07
1054 166.635101318 36.619717 2.0 0.10000046
1053 166.635101318 30.985916 0.6666667 3.931509e-07
542 166.635101318 17.605635 -0.6666667 0.100000225
543 166.635101318 16.90141 0.0 0.10000022
550 166.635101318 14.788733 -0.6666667 0.10000019
549 166.635101318 14.788733 0.0 0.10000019
1326 166.635040283 44.366196 0.6666667 5.629206e-07
1327 166.635040283 44.366196 0.0 5.629206e-07
1334 166.635040283 43.661972 0.0 5.539854e-07
1333 166.635040283 43.661972 0.6666667 5.539854e-07
822 166.635040283 35.21127 -1.3333334 0.20000045
823 166.635040283 35.21127 -2.0 0.20000045
830 166.635040283 32.394367 -1.3333334 0.20000042
829 166.635040283 33.09859 -2.0 0.20000042
543 164.624008179 16.90141 0.0 0.10000022
544 164.624008179 16.90141 -0.6666667 0.10000022
551 164.624008179 14.084507 0.0 0.10000018
550 164.624008179 14.788733 -0.6666667 0.10000019
39 164.624008179 11.267606 -1.3333334 0.10000014
40 164.624008179 11.267606 -2.0 0.10000014
47 164.624008179 8.450705 -1.3333334 0.100000106
46 164.624008179 9.154929 -2.0 0.10000012
827 164.623947144 33.80282 -2.0 0.20000044
828 164.623947144 33.09859 -1.3333334 0.20000042
835 164.623947144 30.985916 -2.0 0.20000039
834 164.623947144 30.985916 -1.3333334 0.20000039
323 164.623947144 8.450705 0.6666667 1.0722298e-07
324 164.623947144 7.746479 2.0 9.828773e-08
331 164.623947144 12.676056 0.6666667 0.100000165
330 164.623947144 6.338028 0.6666667 8.041723e-08
1049 166.426452637 31.690142 1.3333334 4.0208616e-07
1050 166.426452637 31.690142 0.6666667 4.0208616e-07
1057 166.426452637 35.915493 2.0 0.100000456
1056 166.426452637 36.619717 0.6666667 0.10000046
545 166.426452637 16.197184 0.0 0.10000021
546 166.426452637 16.197184 -0.6666667 0.10000021
553 166.426452637 13.380281 0.0 0.10000017
552 166.426452637 14.084507 -0.6666667 0.10000018
1333 166.426544189 43.661972 0.6666667 5.539854e-07
1334 166.426544189 43.661972 0.0 5.539854e-07
1341 166.426544189 47.183098 0.0 0.1000006
1340 166.426544189 47.183098 0.6666667 0.1000006
829 166.426544189 33.09859 -2.0 0.20000042
830 166.426544189 32.394367 -1.3333334 0.20000042
837 166.426544189 30.28169 -2.0 0.20000039
836 166.426544189 30.28169 -1.3333334 0.20000039
834 164.537643433 30.985916 -1.3333334 0.20000039
835 164.537643433 30.985916 -2.0 0.20000039
842 164.537643433 28.169014 -1.3333334 0.20000036
841 164.537643433 28.87324 -2.0 0.20000038
330 164.537643433 6.338028 0.6666667 8.041723e-08
331 164.537643433 12.676056 0.6666667 0.100000165
338 164.537643433 11.267606 0.6666667 0.10000014
337 164.537643433 11.267606 1.3333334 0.10000014
1066 166.123626709 33.80282 2.0 0.100000426
1067 166.123626709 33.80282 1.3333334 0.100000426
1074 166.123626709 32.394367 0.6666667 0.10000041
1073 166.123626709 32.394367 1.3333334 0.10000041
562 166.123626709 22.535212 0.0 0.20000029
563 166.123626709 22.535212 -0.6666667 0.20000029
570 166.123626709 19.71831 0.0 0.20000026
569 166.123626709 20.422535 -0.6666667 0.20000026
1340 166.123596191 47.183098 0.6666667 0.1000006
1341 166.123596191 47.183098 0.0 0.1000006
1348 166.123596191 46.478874 -2.0 0.10000059
1347 166.123596191 46.478874 -1.3333334 0.10000059
836 166.123596191 30.28169 -1.3333334 0.20000039
837 166.123596191 30.28169 -2.0 0.20000039
844 166.123596191 27.464788 -0.6666667 0.20000035
843 166.123596191 28.169014 -2.0 0.20000036
569 164.265075684 20.422535 -0.6666667 0.20000026
570 164.265075684 19.71831 0.0 0.20000026
577 164.265075684 17.605635 -0.6666667 0.20000023
576 164.265075684 17.605635 0.0 0.20000023
65 164.265075684 2.1126761 -1.3333334 0.10000003
66 164.265075684 2.1126761 -2.0 0.10000003
73 164.265075684 11.971831 -1.3333334 0.20000015
72 164.265075684 -1.2688052e-09 -2.0 0.1
1054 165.694839478 36.619717 2.0 0.10000046
1055 165.694839478 36.619717 1.3333334 0.10000046
1062 165.694839478 35.21127 0.6666667 0.10000045
1061 165.694839478 35.21127 1.3333334 0.10000045
550 165.694839478 14.788733 -0.6666667 0.10000019
551 165.694839478 14.084507 0.0 0.10000018
558 165.694839478 23.943663 0.0 0.2000003
557 165.694839478 24.647888 -0.6666667 0.20000032
1347 165.694885254 46.478874 -1.3333334 0.10000059
1348 165.694885254 46.478874 -2.0 0.10000059
1355 165.694885254 45.774647 -2.0 0.10000058
1354 165.694885254 45.774647 -1.3333334 0.10000058
843 165.694885254 28.169014 -2.0 0.20000036
844 165.694885254 27.464788 -0.6666667 0.20000035
851 165.694885254 26.056337 -2.0 0.20000033
850 165.694885254 26.056337 -1.3333334 0.20000033
848 163.812393188 26.760563 -1.3333334 0.20000035
849 163.812393188 26.760563 -2.0 0.20000035
856 163.812393188 35.915493 0.0 4.5569763e-07
855 163.812393188 36.619717 -0.6666667 4.6463285e-07
344 163.812393188 9.859155 0.6666667 0.10000013
345 163.812393188 9.154929 2.0 0.10000012
352 163.812393188 7.746479 1.3333334 0.1000001
351 163.812393188 7.746479 2.0 0.1000001
1060 165.176315308 35.21127 2.0 0.10000045
1061 165.176315308 35.21127 1.3333334 0.10000045
1068 165.176315308 33.80282 0.6666667 0.100000426
1067 165.176315308 33.80282 1.3333334 0.100000426
556 165.176315308 24.647888 0.0 0.20000032
557 165.176315308 24.647888 -0.6666667 0.20000032
564 165.176315308 21.830986 0.0 0.20000029
563 165.176315308 22.535212 -0.6666667 0.20000029
851 165.176269531 26.056337 -2.0 0.20000033
852 165.176269531 25.352112 -1.3333334 0.20000033
859 165.176269531 35.21127 -0.6666667 4.467624e-07
858 165.176269531 35.21127 0.0 4.467624e-07
347 165.176269531 9.154929 0.6666667 0.10000012
348 165.176269531 8.450705 2.0 0.100000106
355 165.176269531 7.0422535 1.3333334 0.10000009
354 165.176269531 7.0422535 2.0 0.10000009
563 163.321563721 22.535212 -0.6666667 0.20000029
564 163.321563721 21.830986 0.0 0.20000029
571 163.321563721 19.71831 -0.6666667 0.20000026
570 163.321563721 19.71831 0.0 0.20000026
59 163.321563721 4.2253523 -1.3333334 0.10000005
60 163.321563721 4.2253523 -2.0 0.10000005
67 163.321563721 1.4084507 -1.3333334 0.10000002
66 163.321563721 2.1126761 -2.0 0.10000003
1354 163.321548462 45.774647 -1.3333334 0.10000058
1355 163.321548462 45.774647 -2.0 0.10000058
1362 163.321548462 45.070423 -2.0 0.100000575
1361 163.321548462 45.070423 -1.3333334 0.100000575
850 163.321548462 26.056337 -1.3333334 0.20000033
851 163.321548462 26.056337 -2.0 0.20000033
858 163.321548462 35.21127 0.0 4.467624e-07
857 163.321548462 35.915493 -0.6666667 4.5569763e-07
531 162.212677002 21.12676 0.0 0.10000027
532 162.212677002 21.12676 -0.6666667 0.10000027
539 162.212677002 18.309858 0.0 0.10000023
538 162.212677002 19.014084 -0.6666667 0.10000024
27 162.212677002 2.8169014 -1.3333334 3.5740992e-08
28 162.212677002 2.8169014 -2.0 3.5740992e-08
35 162.212677002 0.0 -1.3333334 0.0
34 162.212677002 0.70422536 -2.0 8.935248e-09
1028 162.465927124 25.352112 0.6666667 0.20000033
1029 162.465927124 24.647888 2.0 0.20000032
1036 162.465927124 34.507042 2.0 4.3782714e-07
1035 162.465927124 35.21127 0.6666667 4.467624e-07
524 162.465927124 23.943663 -0.6666667 0.10000031
525 162.465927124 23.239437 0.0 0.1000003
532 162.465927124 21.12676 -0.6666667 0.10000027
531 162.465927124 21.12676 0.0 0.10000027
1283 164.809677124 41.549297 1.3333334 0.20000052
1284 164.809677124 41.549297 0.6666667 0.20000052
1291 164.809677124 39.43662 2.0 0.20000051
1290 164.809677124 40.140846 0.6666667 0.20000051
779 164.809677124 25.352112 -2.0 3.2166892e-07
780 164.809677124 24.647888 -1.3333334 3.1273368e-07
787 164.809677124 35.21127 -2.0 0.10000045
786 164.809677124 35.21127 -1.3333334 0.10000045
1291 162.465759277 39.43662 2.0 0.20000051
1292 162.465759277 39.43662 1.3333334 0.20000051
1299 162.465759277 38.028168 0.6666667 0.20000048
1298 162.465759277 38.028168 1.3333334 0.20000048
787 162.465759277 35.21127 -2.0 0.10000045
788 162.465759277 34.507042 -1.3333334 0.10000044
795 162.465759277 32.394367 -2.0 0.10000041
794 162.465759277 32.394367 -1.3333334 0.10000041
1034 158.716461182 35.21127 1.3333334 4.467624e-07
1035 158.716461182 35.21127 0.6666667 4.467624e-07
1042 158.716461182 33.09859 2.0 4.1995665e-07
1041 158.716461182 33.80282 0.6666667 4.2889192e-07
530 158.716461182 21.830986 -0.6666667 0.10000028
531 158.716461182 21.12676 0.0 0.10000027
538 158.716461182 19.014084 -0.6666667 0.10000024
537 158.716461182 19.014084 0.0 0.10000024
529 158.948242188 21.830986 0.0 0.10000028
530 158.948242188 21.830986 -0.6666667 0.10000028
537 158.948242188 19.014084 0.0 0.10000024
536 158.948242188 19.71831 -0.6666667 0.100000255
25 158.948242188 3.5211267 -1.3333334 4.4676238e-08
26 158.948242188 3.5211267 -2.0 4.4676238e-08
33 158.948242188 0.70422536 -1.3333334 8.935248e-09
32 158.948242188 1.4084507 -2.0 1.7870496e-08
1292 158.948181152 39.43662 1.3333334 0.20000051
1293 158.948181152 39.43662 0.6666667 0.20000051
1300 158.948181152 37.323944 2.0 0.20000048
1299 158.948181152 38.028168 0.6666667 0.20000048
788 158.948181152 34.507042 -1.3333334 0.10000044
789 158.948181152 34.507042 -2.0 0.10000044
796 158.948181152 31.690142 -1.3333334 0.100000404
795 158.948181152 32.394367 -2.0 0.10000041
535 165.698074341 19.71831 0.0 0.100000255
536 165.698074341 19.71831 -0.6666667 0.100000255
543 165.698074341 16.90141 0.0 0.10000022
542 165.698074341 17.605635 -0.6666667 0.100000225
31 165.698074341 1.4084507 -1.3333334 1.7870496e-08
32 165.698074341 1.4084507 -2.0 1.7870496e-08
39 165.698074341 11.267606 -1.3333334 0.10000014
38 165.698074341 11.971831 -2.0 0.10000015
1032 162.695373535 35.915493 0.6666667 4.5569763e-07
1033 162.695373535 35.21127 2.0 4.467624e-07
1040 162.695373535 33.80282 1.3333334 4.2889192e-07
1039 162.695373535 33.80282 2.0 4.2889192e-07
528 162.695373535 22.535212 -0.6666667 0.100000285
529 162.695373535 21.830986 0.0 0.10000028
536 162.695373535 19.71831 -0.6666667 0.100000255
535 162.695373535 19.71831 0.0 0.100000255
1298 162.695144653 38.028168 1.3333334 0.20000048
1299 162.695144653 38.028168 0.6666667 0.20000048
1306 162.695144653 46.478874 0.0 5.8972637e-07
1305 162.695144653 46.478874 0.6666667 5.8972637e-07
794 162.695144653 32.394367 -1.3333334 0.10000041
795 162.695144653 32.394367 -2.0 0.10000041
802 162.695144653 29.577465 -1.3333334 0.100000374
801 162.695144653 30.28169 -2.0 0.10000039
522 158.85144043 24.647888 -0.6666667 0.100000314
523 158.85144043 23.943663 0.0 0.10000031
530 158.85144043 21.830986 -0.6666667 0.10000028
529 158.85144043 21.830986 0.0 0.10000028
18 158.85144043 6.338028 -2.0 8.041723e-08
19 158.85144043 5.633803 -1.3333334 7.1481985e-08
26 158.85144043 3.5211267 -2.0 4.4676238e-08
25 158.85144043 3.5211267 -1.3333334 4.4676238e-08
785 158.850875854 35.915493 -2.0 0.100000456
786 158.850875854 35.21127 -1.3333334 0.10000045
793 158.850875854 33.09859 -2.0 0.10000042
792 158.850875854 33.09859 -1.3333334 0.10000042
281 158.850875854 5.633803 0.6666667 0.20000008
282 158.850875854 4.9295774 2.0 0.20000006
289 158.850875854 3.5211267 1.3333334 0.20000005
288 158.850875854 3.5211267 2.0 0.20000005
1035 139.729751587 35.21127 0.6666667 4.467624e-07
1036 139.729751587 34.507042 2.0 4.3782714e-07
1043 139.729751587 33.09859 1.3333334 4.1995665e-07
1042 139.729751587 33.09859 2.0 4.1995665e-07
531 139.729751587 21.12676 0.0 0.10000027
532 139.729751587 21.12676 -0.6666667 0.10000027
539 139.729751587 18.309858 0.0 0.10000023
538 139.729751587 19.014084 -0.6666667 0.10000024
1033 141.960906982 35.21127 2.0 4.467624e-07
1034 141.960906982 35.21127 1.3333334 4.467624e-07
1041 141.960906982 33.80282 0.6666667 4.2889192e-07
1040 141.960906982 33.80282 1.3333334 4.2889192e-07
529 141.960906982 21.830986 0.0 0.10000028
530 141.960906982 21.830986 -0.6666667 0.10000028
537 141.960906982 19.014084 0.0 0.10000024
536 141.960906982 19.71831 -0.6666667 0.100000255
778 141.96472168 25.352112 -1.3333334 3.2166892e-07
779 141.96472168 25.352112 -2.0 3.2166892e-07
786 141.96472168 35.21127 -1.3333334 0.10000045
785 141.96472168 35.915493 -2.0 0.100000456
274 141.96472168 -1.2688052e-09 1.3333334 0.1
275 141.96472168 -1.2688052e-09 0.6666667 0.1
282 141.96472168 4.9295774 2.0 0.20000006
281 141.96472168 5.633803 0.6666667 0.20000008
771 139.726028442 28.169014 -2.0 3.574099e-07
772 139.726028442 27.464788 -1.3333334 3.4847466e-07
779 139.726028442 25.352112 -2.0 3.2166892e-07
778 139.726028442 25.352112 -1.3333334 3.2166892e-07
267 139.726028442 1.4084507 2.0 0.10000002
268 139.726028442 1.4084507 1.3333334 0.10000002
275 139.726028442 -1.2688052e-09 0.6666667 0.1
274 139.726028442 -1.2688052e-09 1.3333334 0.1
1026 137.179580688 25.352112 2.0 0.20000033
1027 137.179580688 25.352112 1.3333334 0.20000033
1034 137.179580688 35.21127 1.3333334 4.467624e-07
1033 137.179580688 35.21127 2.0 4.467624e-07
522 137.179580688 24.647888 -0.6666667 0.100000314
523 137.179580688 23.943663 0.0 0.10000031
530 137.179580688 21.830986 -0.6666667 0.10000028
529 137.179580688 21.830986 0.0 0.10000028
1289 137.172531128 40.140846 1.3333334 0.20000051
1290 137.172531128 40.140846 0.6666667 0.20000051
1297 137.172531128 38.028168 2.0 0.20000048
1296 137.172531128 38.732395 0.6666667 0.2000005
785 137.172531128 35.915493 -2.0 0.100000456
786 137.172531128 35.21127 -1.3333334 0.10000045
793 137.172531128 33.09859 -2.0 0.10000042
792 137.172531128 33.09859 -1.3333334 0.10000042
1020 163.816329956 26.760563 2.0 0.20000035
1021 163.816329956 26.760563 1.3333334 0.20000035
1028 163.816329956 25.352112 0.6666667 0.20000033
1027 163.816329956 25.352112 1.3333334 0.20000033
516 163.816329956 14.084507 -0.6666667 1.7870495e-07
517 163.816329956 13.380281 0.0 1.697697e-07
524 163.816329956 23.943663 -0.6666667 0.10000031
523 163.816329956 23.943663 0.0 0.10000031
792 163.815933228 33.09859 -1.3333334 0.10000042
793 163.815933228 33.09859 -2.0 0.10000042
800 163.815933228 30.28169 -1.3333334 0.10000039
799 163.815933228 30.985916 -2.0 0.1000004
288 163.815933228 3.5211267 2.0 0.20000005
289 163.815933228 3.5211267 1.3333334 0.20000005
296 163.815933228 2.1126761 0.6666667 0.20000003
295 163.815933228 2.1126761 1.3333334 0.20000003
1021 160.04145813 26.760563 1.3333334 0.20000035
1022 160.04145813 26.760563 0.6666667 0.20000035
1029 160.04145813 24.647888 2.0 0.20000032
1028 160.04145813 25.352112 0.6666667 0.20000033
517 160.04145813 13.380281 0.0 1.697697e-07
518 160.04145813 13.380281 -0.6666667 1.697697e-07
525 160.04145813 23.239437 0.0 0.1000003
524 160.04145813 23.943663 -0.6666667 0.10000031
1296 160.040863037 38.732395 0.6666667 0.2000005
1297 160.040863037 38.028168 2.0 0.20000048
1304 160.040863037 46.478874 1.3333334 5.8972637e-07
1303 160.040863037 46.478874 2.0 5.8972637e-07
792 160.040863037 33.09859 -1.3333334 0.10000042
793 160.040863037 33.09859 -2.0 0.10000042
800 160.040863037 30.28169 -1.3333334 0.10000039
799 160.040863037 30.985916 -2.0 0.1000004
521 140.332092285 24.647888 0.0 0.100000314
522 140.332092285 24.647888 -0.6666667 0.100000314
529 140.332092285 21.830986 0.0 0.10000028
528 140.332092285 22.535212 -0.6666667 0.100000285
17 140.332092285 6.338028 -1.3333334 8.041723e-08
18 140.332092285 6.338028 -2.0 8.041723e-08
25 140.332092285 3.5211267 -1.3333334 4.4676238e-08
24 140.332092285 4.2253523 -2.0 5.361149e-08
793 140.331161499 33.09859 -2.0 0.10000042
794 140.331161499 32.394367 -1.3333334 0.10000041
801 140.331161499 30.28169 -2.0 0.10000039
800 140.331161499 30.28169 -1.3333334 0.10000039
289 140.331161499 3.5211267 1.3333334 0.20000005
290 140.331161499 3.5211267 0.6666667 0.20000005
297 140.331161499 1.4084507 2.0 0.20000002
296 140.331161499 2.1126761 0.6666667 0.20000003
514 164.731506348 14.788733 -0.6666667 1.876402e-07
515 164.731506348 14.084507 0.0 1.7870495e-07
522 164.731506348 24.647888 -0.6666667 0.100000314
521 164.731506348 24.647888 0.0 0.100000314
10 164.731506348 9.154929 -2.0 1.1615821e-07
11 164.731506348 8.450705 -1.3333334 1.0722298e-07
18 164.731506348 6.338028 -2.0 8.041723e-08
17 164.731506348 6.338028 -1.3333334 8.041723e-08
1312 167.666290283 45.774647 0.6666667 5.807911e-07
1313 167.666290283 45.774647 0.0 5.807911e-07
1320 167.666290283 45.070423 0.0 5.718559e-07
1319 167.666290283 45.070423 0.6666667 5.718559e-07
808 167.666290283 27.464788 -0.6666667 0.10000035
809 167.666290283 27.464788 -1.3333334 0.10000035
816 167.666290283 25.352112 -1.3333334 0.10000032
815 167.666290283 26.056337 -2.0 0.10000033
799 164.730789185 30.985916 -2.0 0.1000004
800 164.730789185 30.28169 -1.3333334 0.10000039
807 164.730789185 28.169014 -2.0 0.10000036
806 164.730789185 28.169014 -1.3333334 0.10000036
295 164.730789185 2.1126761 1.3333334 0.20000003
296 164.730789185 2.1126761 0.6666667 0.20000003
303 164.730789185 -2.5376103e-09 2.0 0.2
302 164.730789185 0.70422536 0.6666667 0.20000002
1018 160.722396851 27.464788 1.3333334 0.20000035
1019 160.722396851 27.464788 0.6666667 0.20000035
1026 160.722396851 25.352112 2.0 0.20000033
1025 160.722396851 26.056337 0.6666667 0.20000033
514 160.722396851 14.788733 -0.6666667 1.876402e-07
515 160.722396851 14.084507 0.0 1.7870495e-07
522 160.722396851 24.647888 -0.6666667 0.100000314
521 160.722396851 24.647888 0.0 0.100000314
1303 160.721191406 46.478874 2.0 5.8972637e-07
1304 160.721191406 46.478874 1.3333334 5.8972637e-07
1311 160.721191406 45.774647 1.3333334 5.807911e-07
1310 160.721191406 45.774647 2.0 5.807911e-07
799 160.721191406 30.985916 -2.0 0.1000004
800 160.721191406 30.28169 -1.3333334 0.10000039
807 160.721191406 28.169014 -2.0 0.10000036
806 160.721191406 28.169014 -1.3333334 0.10000036
515 131.740066528 14.084507 0.0 1.7870495e-07
516 131.740066528 14.084507 -0.6666667 1.7870495e-07
523 131.740066528 23.943663 0.0 0.10000031
522 131.740066528 24.647888 -0.6666667 0.100000314
11 131.740066528 8.450705 -1.3333334 1.0722298e-07
12 131.740066528 8.450705 -2.0 1.0722298e-07
19 131.740066528 5.633803 -1.3333334 7.1481985e-08
18 131.740066528 6.338028 -2.0 8.041723e-08
800 131.712585449 30.28169 -1.3333334 0.10000039
801 131.712585449 30.28169 -2.0 0.10000039
808 131.712585449 27.464788 -0.6666667 0.10000035
807 131.712585449 28.169014 -2.0 0.10000036
296 131.712585449 2.1126761 0.6666667 0.20000003
297 131.712585449 1.4084507 2.0 0.20000002
304 131.712585449 -2.5376103e-09 1.3333334 0.2
303 131.712585449 -2.5376103e-09 2.0 0.2
520 166.056945801 12.676056 -0.6666667 1.6083446e-07
521 166.056945801 24.647888 0.0 0.100000314
528 166.056945801 22.535212 -0.6666667 0.100000285
527 166.056945801 22.535212 0.0 0.100000285
16 166.056945801 7.0422535 -2.0 8.9352476e-08
17 166.056945801 6.338028 -1.3333334 8.041723e-08
24 166.056945801 4.2253523 -2.0 5.361149e-08
23 166.056945801 4.2253523 -1.3333334 5.361149e-08
806 166.054931641 28.169014 -1.3333334 0.10000036
807 166.054931641 28.169014 -2.0 0.10000036
814 166.054931641 26.056337 -1.3333334 0.10000033
813 166.054931641 26.760563 -2.0 0.100000344
302 166.054931641 0.70422536 0.6666667 0.20000002
303 166.054931641 -2.5376103e-09 2.0 0.2
310 166.054931641 11.267606 1.3333334 1.4296397e-07
309 166.054931641 11.267606 2.0 1.4296397e-07
1024 161.848709106 26.056337 1.3333334 0.20000033
1025 161.848709106 26.056337 0.6666667 0.20000033
1032 161.848709106 35.915493 0.6666667 4.5569763e-07
1031 161.848709106 35.915493 1.3333334 4.5569763e-07
520 161.848709106 12.676056 -0.6666667 1.6083446e-07
521 161.848709106 24.647888 0.0 0.100000314
528 161.848709106 22.535212 -0.6666667 0.100000285
527 161.848709106 22.535212 0.0 0.100000285
1310 161.845870972 45.774647 2.0 5.807911e-07
1311 161.845870972 45.774647 1.3333334 5.807911e-07
1318 161.845870972 45.070423 1.3333334 5.718559e-07
1317 161.845870972 45.070423 2.0 5.718559e-07
806 161.845870972 28.169014 -1.3333334 0.10000036
807 161.845870972 28.169014 -2.0 0.10000036
814 161.845870972 26.056337 -1.3333334 0.10000033
813 161.845870972 26.760563 -2.0 0.100000344
527 131.426147461 22.535212 0.0 0.100000285
528 131.426147461 22.535212 -0.6666667 0.100000285
535 131.426147461 19.71831 0.0 0.100000255
534 131.426147461 20.422535 -0.6666667 0.10000026
23 131.426147461 4.2253523 -1.3333334 5.361149e-08
24 131.426147461 4.2253523 -2.0 5.361149e-08
31 131.426147461 1.4084507 -1.3333334 1.7870496e-08
30 131.426147461 2.1126761 -2.0 2.6805743e-08
807 131.376602173 28.169014 -2.0 0.10000036
808 131.376602173 27.464788 -0.6666667 0.10000035
815 131.376602173 26.056337 -2.0 0.10000033
814 131.376602173 26.056337 -1.3333334 0.10000033
303 131.376602173 -2.5376103e-09 2.0 0.2
304 131.376602173 -2.5376103e-09 1.3333334 0.2
311 131.376602173 11.267606 0.6666667 1.4296397e-07
310 131.376602173 11.267606 1.3333334 1.4296397e-07
509 164.32913208 16.90141 -0.6666667 2.1444595e-07
510 164.32913208 16.197184 0.0 2.055107e-07
517 164.32913208 13.380281 0.0 1.697697e-07
516 164.32913208 14.084507 -0.6666667 1.7870495e-07
5 164.32913208 10.56338 -1.3333334 1.3402871e-07
6 164.32913208 10.56338 -2.0 1.3402871e-07
13 164.32913208 7.746479 -1.3333334 9.828773e-08
12 164.32913208 8.450705 -2.0 1.0722298e-07
1317 164.324127197 45.070423 2.0 5.718559e-07
1318 164.324127197 45.070423 1.3333334 5.718559e-07
1325 164.324127197 44.366196 1.3333334 5.629206e-07
1324 164.324127197 44.366196 2.0 5.629206e-07
813 164.324127197 26.760563 -2.0 0.100000344
814 164.324127197 26.056337 -1.3333334 0.10000033
821 164.324127197 35.915493 -2.0 0.20000046
820 164.324127197 35.915493 -1.3333334 0.20000046
510 159.896102905 16.197184 0.0 2.055107e-07
511 159.896102905 16.197184 -0.6666667 2.055107e-07
518 159.896102905 13.380281 -0.6666667 1.697697e-07
517 159.896102905 13.380281 0.0 1.697697e-07
6 159.896102905 10.56338 -2.0 1.3402871e-07
7 159.896102905 9.859155 -1.3333334 1.2509346e-07
14 159.896102905 7.746479 -2.0 9.828773e-08
13 159.896102905 7.746479 -1.3333334 9.828773e-08
814 159.884384155 26.056337 -1.3333334 0.10000033
815 159.884384155 26.056337 -2.0 0.10000033
822 159.884384155 35.21127 -1.3333334 0.20000045
821 159.884384155 35.915493 -2.0 0.20000046
310 159.884384155 11.267606 1.3333334 1.4296397e-07
311 159.884384155 11.267606 0.6666667 1.4296397e-07
318 159.884384155 9.154929 2.0 1.1615821e-07
317 159.884384155 9.859155 0.6666667 1.2509346e-07
1013 115.301048279 28.87324 0.6666667 0.20000038
1014 115.301048279 28.169014 2.0 0.20000036
1021 115.301048279 26.760563 1.3333334 0.20000035
1020 115.301048279 26.760563 2.0 0.20000035
509 115.301048279 16.90141 -0.6666667 2.1444595e-07
510 115.301048279 16.197184 0.0 2.055107e-07
517 115.301048279 13.380281 0.0 1.697697e-07
516 115.301048279 14.084507 -0.6666667 1.7870495e-07
1318 115.128166199 45.070423 1.3333334 5.718559e-07
1319 115.128166199 45.070423 0.6666667 5.718559e-07
1326 115.128166199 44.366196 0.6666667 5.629206e-07
1325 115.128166199 44.366196 1.3333334 5.629206e-07
814 115.128166199 26.056337 -1.3333334 0.10000033
815 115.128166199 26.056337 -2.0 0.10000033
822 115.128166199 35.21127 -1.3333334 0.20000045
821 115.128166199 35.915493 -2.0 0.20000046
506 160.450180054 17.605635 0.0 2.233812e-07
507 160.450180054 17.605635 -0.6666667 2.233812e-07
514 160.450180054 14.788733 -0.6666667 1.876402e-07
513 160.450180054 15.492958 -0.6666667 1.9657546e-07
2 160.450180054 11.971831 -2.0 1.5189921e-07
3 160.450180054 11.267606 -1.3333334 1.4296397e-07
10 160.450180054 9.154929 -2.0 1.1615821e-07
9 160.450180054 9.154929 -1.3333334 1.1615821e-07
748 160.452102661 35.915493 -1.3333334 4.5569763e-07
749 160.452102661 35.915493 -2.0 4.5569763e-07
756 160.452102661 33.09859 -1.3333334 4.1995665e-07
755 160.452102661 33.80282 -2.0 4.2889192e-07
244 160.452102661 0.0 1.3333334 0.0
245 160.452102661 0.0 0.6666667 0.0
252 160.452102661 4.9295774 2.0 0.10000006
251 160.452102661 5.633803 0.6666667 0.100000076
1010 156.569564819 29.577465 0.6666667 0.20000038
1011 156.569564819 28.87324 2.0 0.20000038
1018 156.569564819 27.464788 1.3333334 0.20000035
1017 156.569564819 27.464788 2.0 0.20000035
506 156.569564819 17.605635 0.0 2.233812e-07
507 156.569564819 17.605635 -0.6666667 2.233812e-07
514 156.569564819 14.788733 -0.6666667 1.876402e-07
513 156.569564819 15.492958 -0.6666667 1.9657546e-07
1252 156.569641113 42.25352 2.0 0.10000054
1253 156.569641113 42.25352 1.3333334 0.10000054
1260 156.569641113 40.84507 0.6666667 0.100000516
1259 156.569641113 40.84507 1.3333334 0.100000516
748 156.569641113 35.915493 -1.3333334 4.5569763e-07
749 156.569641113 35.915493 -2.0 4.5569763e-07
756 156.569641113 33.09859 -1.3333334 4.1995665e-07
755 156.569641113 33.80282 -2.0 4.2889192e-07
507 125.072212219 17.605635 -0.6666667 2.233812e-07
508 125.072212219 16.90141 0.0 2.1444595e-07
515 125.072212219 14.084507 0.0 1.7870495e-07
514 125.072212219 14.788733 -0.6666667 1.876402e-07
3 125.072212219 11.267606 -1.3333334 1.4296397e-07
4 125.072212219 11.267606 -2.0 1.4296397e-07
11 125.072212219 8.450705 -1.3333334 1.0722298e-07
10 125.072212219 9.154929 -2.0 1.1615821e-07
755 125.012908936 33.80282 -2.0 4.2889192e-07
756 125.012908936 33.09859 -1.3333334 4.1995665e-07
763 125.012908936 30.985916 -2.0 3.931509e-07
762 125.012908936 30.985916 -1.3333334 3.931509e-07
251 125.012908936 5.633803 0.6666667 0.100000076
252 125.012908936 4.9295774 2.0 0.10000006
259 125.012908936 3.5211267 1.3333334 0.100000046
258 125.012908936 3.5211267 2.0 0.100000046
1016 137.636566162 28.169014 0.6666667 0.20000036
1017 137.636566162 27.464788 2.0 0.20000035
1024 137.636566162 26.056337 1.3333334 0.20000033
1023 137.636566162 26.056337 2.0 0.20000033
512 137.636566162 15.492958 0.0 1.9657546e-07
513 137.636566162 15.492958 -0.6666667 1.9657546e-07
520 137.636566162 12.676056 -0.6666667 1.6083446e-07
519 137.636566162 12.676056 0.0 1.6083446e-07
1231 137.797988892 40.140846 2.0 5.0930913e-07
1232 137.797988892 40.140846 1.3333334 5.0930913e-07
1239 137.797988892 38.732395 0.6666667 4.9143864e-07
1238 137.797988892 38.732395 1.3333334 4.9143864e-07
727 137.797988892 23.239437 2.0 0.2000003
728 137.797988892 23.239437 1.3333334 0.2000003
735 137.797988892 21.830986 0.6666667 0.20000029
734 137.797988892 21.830986 1.3333334 0.20000029
519 127.536422729 12.676056 0.0 1.6083446e-07
520 127.536422729 12.676056 -0.6666667 1.6083446e-07
527 127.536422729 22.535212 0.0 0.100000285
526 127.536422729 23.239437 -0.6666667 0.1000003
15 127.536422729 7.0422535 -1.3333334 8.9352476e-08
16 127.536422729 7.0422535 -2.0 8.9352476e-08
23 127.536422729 4.2253523 -1.3333334 5.361149e-08
22 127.536422729 4.9295774 -2.0 6.254673e-08
734 127.727401733 21.830986 1.3333334 0.20000029
735 127.727401733 21.830986 0.6666667 0.20000029
742 127.727401733 19.71831 2.0 0.20000026
741 127.727401733 20.422535 0.6666667 0.20000026
230 127.727401733 3.5211267 0.6666667 4.4676238e-08
231 127.727401733 2.8169014 2.0 3.5740992e-08
238 127.727401733 1.4084507 1.3333334 1.7870496e-08
237 127.727401733 1.4084507 2.0 1.7870496e-08
1023 129.965499878 26.056337 2.0 0.20000033
1024 129.965499878 26.056337 1.3333334 0.20000033
1031 129.965499878 35.915493 1.3333334 4.5569763e-07
1030 129.965499878 35.915493 2.0 4.5569763e-07
519 129.965499878 12.676056 0.0 1.6083446e-07
520 129.965499878 12.676056 -0.6666667 1.6083446e-07
527 129.965499878 22.535212 0.0 0.100000285
526 129.965499878 23.239437 -0.6666667 0.1000003
1238 130.210266113 38.732395 1.3333334 4.9143864e-07
1239 130.210266113 38.732395 0.6666667 4.9143864e-07
1246 130.210266113 36.619717 2.0 4.6463285e-07
1245 130.210266113 37.323944 0.6666667 4.7356812e-07
734 130.210266113 21.830986 1.3333334 0.20000029
735 130.210266113 21.830986 0.6666667 0.20000029
742 130.210266113 19.71831 2.0 0.20000026
741 130.210266113 20.422535 0.6666667 0.20000026
559 160.893676758 23.943663 -0.6666667 0.2000003
560 160.893676758 23.239437 0.0 0.2000003
567 160.893676758 21.12676 -0.6666667 0.20000027
566 160.893676758 21.12676 0.0 0.20000027
55 160.893676758 5.633803 -1.3333334 0.100000076
56 160.893676758 5.633803 -2.0 0.100000076
63 160.893676758 2.8169014 -1.3333334 0.10000004
62 160.893676758 3.5211267 -2.0 0.100000046
1067 161.124343872 33.80282 1.3333334 0.100000426
1068 161.124343872 33.80282 0.6666667 0.100000426
1075 161.124343872 31.690142 2.0 0.100000404
1074 161.124343872 32.394367 0.6666667 0.10000041
563 161.124343872 22.535212 -0.6666667 0.20000029
564 161.124343872 21.830986 0.0 0.20000029
571 161.124343872 19.71831 -0.6666667 0.20000026
570 161.124343872 19.71831 0.0 0.20000026
551 163.81237793 14.084507 0.0 0.10000018
552 163.81237793 14.084507 -0.6666667 0.10000018
559 163.81237793 23.943663 -0.6666667 0.2000003
558 163.81237793 23.943663 0.0 0.2000003
47 163.81237793 8.450705 -1.3333334 0.100000106
48 163.81237793 8.450705 -2.0 0.100000106
55 163.81237793 5.633803 -1.3333334 0.100000076
54 163.81237793 6.338028 -2.0 0.10000008
552 161.563659668 14.084507 -0.6666667 0.10000018
553 161.563659668 13.380281 0.0 0.10000017
560 161.563659668 23.239437 0.0 0.2000003
559 161.563659668 23.943663 -0.6666667 0.2000003
48 161.563659668 8.450705 -2.0 0.100000106
49 161.563659668 7.746479 -1.3333334 0.1000001
56 161.563659668 5.633803 -2.0 0.100000076
55 161.563659668 5.633803 -1.3333334 0.100000076
855 161.124328613 36.619717 -0.6666667 4.6463285e-07
856 161.124328613 35.915493 0.0 4.5569763e-07
863 161.124328613 33.80282 -0.6666667 4.2889192e-07
862 161.124328613 33.80282 0.0 4.2889192e-07
351 161.124328613 7.746479 2.0 0.1000001
352 161.124328613 7.746479 1.3333334 0.1000001
359 161.124328613 11.971831 2.0 0.20000015
358 161.124328613 12.676056 0.0 0.20000017
1352 161.563674927 45.774647 0.0 0.10000058
1353 161.563674927 45.774647 -0.6666667 0.10000058
1360 161.563674927 45.070423 -0.6666667 0.100000575
1359 161.563674927 45.070423 0.0 0.100000575
848 161.563674927 26.760563 -1.3333334 0.20000035
849 161.563674927 26.760563 -2.0 0.20000035
856 161.563674927 35.915493 0.0 4.5569763e-07
855 161.563674927 36.619717 -0.6666667 4.6463285e-07
570 158.234573364 19.71831 0.0 0.20000026
571 158.234573364 19.71831 -0.6666667 0.20000026
578 158.234573364 16.90141 0.0 0.20000021
577 158.234573364 17.605635 -0.6666667 0.20000023
66 158.234573364 2.1126761 -2.0 0.10000003
67 158.234573364 1.4084507 -1.3333334 0.10000002
74 158.234573364 11.971831 -2.0 0.20000015
73 158.234573364 11.971831 -1.3333334 0.20000015
1359 158.234542847 45.070423 0.0 0.100000575
1360 158.234542847 45.070423 -0.6666667 0.100000575
1367 158.234542847 44.366196 -0.6666667 0.10000056
1366 158.234542847 44.366196 0.0 0.10000056
855 158.234542847 36.619717 -0.6666667 4.6463285e-07
856 158.234542847 35.915493 0.0 4.5569763e-07
863 158.234542847 33.80282 -0.6666667 4.2889192e-07
862 158.234542847 33.80282 0.0 4.2889192e-07
1055 158.474731445 36.619717 1.3333334 0.10000046
1056 158.474731445 36.619717 0.6666667 0.10000046
1063 158.474731445 34.507042 2.0 0.10000044
1062 158.474731445 35.21127 0.6666667 0.10000045
551 158.474731445 14.084507 0.0 0.10000018
552 158.474731445 14.084507 -0.6666667 0.10000018
559 158.474731445 23.943663 -0.6666667 0.2000003
558 158.474731445 23.943663 0.0 0.2000003
849 158.474884033 26.760563 -2.0 0.20000035
850 158.474884033 26.056337 -1.3333334 0.20000033
857 158.474884033 35.915493 -0.6666667 4.5569763e-07
856 158.474884033 35.915493 0.0 4.5569763e-07
345 158.474884033 9.154929 2.0 0.10000012
346 158.474884033 9.154929 1.3333334 0.10000012
353 158.474884033 7.746479 0.6666667 0.1000001
352 158.474884033 7.746479 1.3333334 0.1000001
1073 162.086959839 32.394367 1.3333334 0.10000041
1074 162.086959839 32.394367 0.6666667 0.10000041
1081 162.086959839 36.619717 2.0 0.20000046
1080 162.086959839 30.985916 0.6666667 0.1000004
569 162.086959839 20.422535 -0.6666667 0.20000026
570 162.086959839 19.71831 0.0 0.20000026
577 162.086959839 17.605635 -0.6666667 0.20000023
576 162.086959839 17.605635 0.0 0.20000023
841 164.265045166 28.87324 -2.0 0.20000038
842 164.265045166 28.169014 -1.3333334 0.20000036
849 164.265045166 26.760563 -2.0 0.20000035
848 164.265045166 26.760563 -1.3333334 0.20000035
337 164.265045166 11.267606 1.3333334 0.10000014
338 164.265045166 11.267606 0.6666667 0.10000014
345 164.265045166 9.154929 2.0 0.10000012
344 164.265045166 9.859155 0.6666667 0.10000013
1345 162.086990356 46.478874 0.0 0.10000059
1346 162.086990356 46.478874 -0.6666667 0.10000059
1353 162.086990356 45.774647 -0.6666667 0.10000058
1352 162.086990356 45.774647 0.0 0.10000058
841 162.086990356 28.87324 -2.0 0.20000038
842 162.086990356 28.169014 -1.3333334 0.20000036
849 162.086990356 26.760563 -2.0 0.20000035
848 162.086990356 26.760563 -1.3333334 0.20000035
549 159.100387573 14.788733 0.0 0.10000019
550 159.100387573 14.788733 -0.6666667 0.10000019
557 159.100387573 24.647888 -0.6666667 0.20000032
556 159.100387573 24.647888 0.0 0.20000032
45 159.100387573 9.154929 -1.3333334 0.10000012
46 159.100387573 9.154929 -2.0 0.10000012
53 159.100387573 6.338028 -1.3333334 0.10000008
52 159.100387573 7.0422535 -2.0 0.10000009
842 159.100463867 28.169014 -1.3333334 0.20000036
843 159.100463867 28.169014 -2.0 0.20000036
850 159.100463867 26.056337 -1.3333334 0.20000033
849 159.100463867 26.760563 -2.0 0.20000035
338 159.100463867 11.267606 0.6666667 0.10000014
339 159.100463867 10.56338 2.0 0.100000136
346 159.100463867 9.154929 1.3333334 0.10000012
345 159.100463867 9.154929 2.0 0.10000012
1074 150.779220581 32.394367 0.6666667 0.10000041
1075 150.779220581 31.690142 2.0 0.100000404
1082 150.779220581 36.619717 1.3333334 0.20000046
1081 150.779220581 36.619717 2.0 0.20000046
570 150.779220581 19.71831 0.0 0.20000026
571 150.779220581 19.71831 -0.6666667 0.20000026
578 150.779220581 16.90141 0.0 0.20000021
577 150.779220581 17.605635 -0.6666667 0.20000023
856 150.778198242 35.915493 0.0 4.5569763e-07
857 150.778198242 35.915493 -0.6666667 4.5569763e-07
864 150.778198242 33.09859 0.0 4.1995665e-07
863 150.778198242 33.80282 -0.6666667 4.2889192e-07
352 150.778198242 7.746479 1.3333334 0.1000001
353 150.778198242 7.746479 0.6666667 0.1000001
360 150.778198242 11.971831 1.3333334 0.20000015
359 150.778198242 11.971831 2.0 0.20000015
1056 149.43598938 36.619717 0.6666667 0.10000046
1057 149.43598938 35.915493 2.0 0.100000456
1064 149.43598938 34.507042 1.3333334 0.10000044
1063 149.43598938 34.507042 2.0 0.10000044
552 149.43598938 14.084507 -0.6666667 0.10000018
553 149.43598938 13.380281 0.0 0.10000017
560 149.43598938 23.239437 0.0 0.2000003
559 149.43598938 23.943663 -0.6666667 0.2000003
1353 149.438400269 45.774647 -0.6666667 0.10000058
1354 149.438400269 45.774647 -1.3333334 0.10000058
1361 149.438400269 45.070423 -1.3333334 0.100000575
1360 149.438400269 45.070423 -0.6666667 0.100000575
849 149.438400269 26.760563 -2.0 0.20000035
850 149.438400269 26.056337 -1.3333334 0.20000033
857 149.438400269 35.915493 -0.6666667 4.5569763e-07
856 149.438400269 35.915493 0.0 4.5569763e-07
1053 148.489151001 30.985916 0.6666667 3.931509e-07
1054 148.489151001 36.619717 2.0 0.10000046
1061 148.489151001 35.21127 1.3333334 0.10000045
1060 148.489151001 35.21127 2.0 0.10000045
549 148.489151001 14.788733 0.0 0.10000019
550 148.489151001 14.788733 -0.6666667 0.10000019
557 148.489151001 24.647888 -0.6666667 0.20000032
556 148.489151001 24.647888 0.0 0.20000032
1346 148.49079895 46.478874 -0.6666667 0.10000059
1347 148.49079895 46.478874 -1.3333334 0.10000059
1354 148.49079895 45.774647 -1.3333334 0.10000058
1353 148.49079895 45.774647 -0.6666667 0.10000058
842 148.49079895 28.169014 -1.3333334 0.20000036
843 148.49079895 28.169014 -2.0 0.20000036
850 148.49079895 26.056337 -1.3333334 0.20000033
849 148.49079895 26.760563 -2.0 0.20000035
548 164.537612915 15.492958 -0.6666667 0.100000195
549 164.537612915 14.788733 0.0 0.10000019
556 164.537612915 24.647888 0.0 0.20000032
555 164.537612915 12.676056 -0.6666667 0.100000165
44 164.537612915 9.859155 -2.0 0.10000013
45 164.537612915 9.154929 -1.3333334 0.10000012
52 164.537612915 7.0422535 -2.0 0.10000009
51 164.537612915 7.0422535 -1.3333334 0.10000009
1052 162.359893799 30.985916 1.3333334 3.931509e-07
1053 162.359893799 30.985916 0.6666667 3.931509e-07
1060 162.359893799 35.21127 2.0 0.10000045
1059 162.359893799 35.915493 0.6666667 0.100000456
548 162.359893799 15.492958 -0.6666667 0.100000195
549 162.359893799 14.788733 0.0 0.10000019
556 162.359893799 24.647888 0.0 0.20000032
555 162.359893799 12.676056 -0.6666667 0.100000165
1338 162.359939575 47.183098 2.0 0.1000006
1339 162.359939575 47.183098 1.3333334 0.1000006
1346 162.359939575 46.478874 -0.6666667 0.10000059
1345 162.359939575 46.478874 0.0 0.10000059
834 162.359939575 30.985916 -1.3333334 0.20000039
835 162.359939575 30.985916 -2.0 0.20000039
842 162.359939575 28.169014 -1.3333334 0.20000036
841 162.359939575 28.87324 -2.0 0.20000038
555 159.43296814 12.676056 -0.6666667 0.100000165
556 159.43296814 24.647888 0.0 0.20000032
563 159.43296814 22.535212 -0.6666667 0.20000029
562 159.43296814 22.535212 0.0 0.20000029
51 159.43296814 7.0422535 -1.3333334 0.10000009
52 159.43296814 7.0422535 -2.0 0.10000009
59 159.43296814 4.2253523 -1.3333334 0.10000005
58 159.43296814 4.9295774 -2.0 0.10000006
835 159.433166504 30.985916 -2.0 0.20000039
836 159.433166504 30.28169 -1.3333334 0.20000039
843 159.433166504 28.169014 -2.0 0.20000036
842 159.433166504 28.169014 -1.3333334 0.20000036
331 159.433166504 12.676056 0.6666667 0.100000165
332 159.433166504 12.676056 0.0 0.100000165
339 159.433166504 10.56338 2.0 0.100000136
338 159.433166504 11.267606 0.6666667 0.10000014
1059 148.017196655 35.915493 0.6666667 0.100000456
1060 148.017196655 35.21127 2.0 0.10000045
1067 148.017196655 33.80282 1.3333334 0.100000426
1066 148.017196655 33.80282 2.0 0.100000426
555 148.017196655 12.676056 -0.6666667 0.100000165
556 148.017196655 24.647888 0.0 0.20000032
563 148.017196655 22.535212 -0.6666667 0.20000029
562 148.017196655 22.535212 0.0 0.20000029
1339 148.026565552 47.183098 1.3333334 0.1000006
1340 148.026565552 47.183098 0.6666667 0.1000006
1347 148.026565552 46.478874 -1.3333334 0.10000059
1346 148.026565552 46.478874 -0.6666667 0.10000059
835 148.026565552 30.985916 -2.0 0.20000039
836 148.026565552 30.28169 -1.3333334 0.20000039
843 148.026565552 28.169014 -2.0 0.20000036
842 148.026565552 28.169014 -1.3333334 0.20000036
1047 162.262741089 32.394367 0.6666667 4.110214e-07
1048 162.262741089 31.690142 2.0 4.0208616e-07
1055 162.262741089 36.619717 1.3333334 0.10000046
1054 162.262741089 36.619717 2.0 0.10000046
543 162.262741089 16.90141 0.0 0.10000022
544 162.262741089 16.90141 -0.6666667 0.10000022
551 162.262741089 14.084507 0.0 0.10000018
550 162.262741089 14.788733 -0.6666667 0.10000019
1331 162.262756348 43.661972 2.0 5.539854e-07
1332 162.262756348 43.661972 1.3333334 5.539854e-07
1339 162.262756348 47.183098 1.3333334 0.1000006
1338 162.262756348 47.183098 2.0 0.1000006
827 162.262756348 33.80282 -2.0 0.20000044
828 162.262756348 33.09859 -1.3333334 0.20000042
835 162.262756348 30.985916 -2.0 0.20000039
834 162.262756348 30.985916 -1.3333334 0.20000039
544 158.96031189 16.90141 -0.6666667 0.10000022
545 158.96031189 16.197184 0.0 0.10000021
552 158.96031189 14.084507 -0.6666667 0.10000018
551 158.96031189 14.084507 0.0 0.10000018
40 158.96031189 11.267606 -2.0 0.10000014
41 158.96031189 10.56338 -1.3333334 0.100000136
48 158.96031189 8.450705 -2.0 0.100000106
47 158.96031189 8.450705 -1.3333334 0.100000106
828 158.960342407 33.09859 -1.3333334 0.20000042
829 158.960342407 33.09859 -2.0 0.20000042
836 158.960342407 30.28169 -1.3333334 0.20000039
835 158.960342407 30.985916 -2.0 0.20000039
324 158.960342407 7.746479 2.0 9.828773e-08
325 158.960342407 7.746479 1.3333334 9.828773e-08
332 158.960342407 12.676056 0.0 0.100000165
331 158.960342407 12.676056 0.6666667 0.100000165
545 144.542724609 16.197184 0.0 0.10000021
546 144.542724609 16.197184 -0.6666667 0.10000021
553 144.542724609 13.380281 0.0 0.10000017
552 144.542724609 14.084507 -0.6666667 0.10000018
41 144.542724609 10.56338 -1.3333334 0.100000136
42 144.542724609 10.56338 -2.0 0.100000136
49 144.542724609 7.746479 -1.3333334 0.1000001
48 144.542724609 8.450705 -2.0 0.100000106
1332 144.543640137 43.661972 1.3333334 5.539854e-07
1333 144.543640137 43.661972 0.6666667 5.539854e-07
1340 144.543640137 47.183098 0.6666667 0.1000006
1339 144.543640137 47.183098 1.3333334 0.1000006
828 144.543640137 33.09859 -1.3333334 0.20000042
829 144.543640137 33.09859 -2.0 0.20000042
836 144.543640137 30.28169 -1.3333334 0.20000039
835 144.543640137 30.985916 -2.0 0.20000039
1072 162.092636108 32.394367 2.0 0.10000041
1073 162.092636108 32.394367 1.3333334 0.10000041
1080 162.092636108 30.985916 0.6666667 0.1000004
1079 162.092636108 30.985916 1.3333334 0.1000004
568 162.092636108 20.422535 0.0 0.20000026
569 162.092636108 20.422535 -0.6666667 0.20000026
576 162.092636108 17.605635 0.0 0.20000023
575 162.092636108 18.309858 -0.6666667 0.20000024
1324 162.092605591 44.366196 2.0 5.629206e-07
1325 162.092605591 44.366196 1.3333334 5.629206e-07
1332 162.092605591 43.661972 1.3333334 5.539854e-07
1331 162.092605591 43.661972 2.0 5.539854e-07
820 162.092605591 35.915493 -1.3333334 0.20000046
821 162.092605591 35.915493 -2.0 0.20000046
828 162.092605591 33.09859 -1.3333334 0.20000042
827 162.092605591 33.80282 -2.0 0.20000044
541 158.755004883 17.605635 0.0 0.100000225
542 158.755004883 17.605635 -0.6666667 0.100000225
549 158.755004883 14.788733 0.0 0.10000019
548 158.755004883 15.492958 -0.6666667 0.100000195
37 158.755004883 11.971831 -1.3333334 0.10000015
38 158.755004883 11.971831 -2.0 0.10000015
45 158.755004883 9.154929 -1.3333334 0.10000012
44 158.755004883 9.859155 -2.0 0.10000013
821 158.755111694 35.915493 -2.0 0.20000046
822 158.755111694 35.21127 -1.3333334 0.20000045
829 158.755111694 33.09859 -2.0 0.20000042
828 158.755111694 33.09859 -1.3333334 0.20000042
317 158.755111694 9.859155 0.6666667 1.2509346e-07
318 158.755111694 9.154929 2.0 1.1615821e-07
325 158.755111694 7.746479 1.3333334 9.828773e-08
324 158.755111694 7.746479 2.0 9.828773e-08
1045 145.203460693 32.394367 2.0 4.110214e-07
1046 145.203460693 32.394367 1.3333334 4.110214e-07
1053 145.203460693 30.985916 0.6666667 3.931509e-07
1052 145.203460693 30.985916 1.3333334 3.931509e-07
541 145.203460693 17.605635 0.0 0.100000225
542 145.203460693 17.605635 -0.6666667 0.100000225
549 145.203460693 14.788733 0.0 0.10000019
548 145.203460693 15.492958 -0.6666667 0.100000195
1325 145.206817627 44.366196 1.3333334 5.629206e-07
1326 145.206817627 44.366196 0.6666667 5.629206e-07
1333 145.206817627 43.661972 0.6666667 5.539854e-07
1332 145.206817627 43.661972 1.3333334 5.539854e-07
821 145.206817627 35.915493 -2.0 0.20000046
822 145.206817627 35.21127 -1.3333334 0.20000045
829 145.206817627 33.09859 -2.0 0.20000042
828 145.206817627 33.09859 -1.3333334 0.20000042
1051 162.051544189 30.985916 2.0 3.931509e-07
1052 162.051544189 30.985916 1.3333334 3.931509e-07
1059 162.051544189 35.915493 0.6666667 0.100000456
1058 162.051544189 35.915493 1.3333334 0.100000456
547 162.051544189 15.492958 0.0 0.100000195
548 162.051544189 15.492958 -0.6666667 0.100000195
555 162.051544189 12.676056 -0.6666667 0.100000165
554 162.051544189 13.380281 -0.6666667 0.10000017
1262 162.051483154 40.140846 1.3333334 0.10000051
1263 162.051483154 40.140846 0.6666667 0.10000051
1270 162.051483154 38.028168 2.0 0.100000486
1269 162.051483154 38.732395 0.6666667 0.10000049
758 162.051483154 32.394367 -1.3333334 4.110214e-07
759 162.051483154 32.394367 -2.0 4.110214e-07
766 162.051483154 29.577465 -1.3333334 3.7528042e-07
765 162.051483154 30.28169 -2.0 3.8421567e-07
554 158.716049194 13.380281 -0.6666667 0.10000017
555 158.716049194 12.676056 -0.6666667 0.100000165
562 158.716049194 22.535212 0.0 0.20000029
561 158.716049194 23.239437 -0.6666667 0.2000003
50 158.716049194 7.746479 -2.0 0.1000001
51 158.716049194 7.0422535 -1.3333334 0.10000009
58 158.716049194 4.9295774 -2.0 0.10000006
57 158.716049194 4.9295774 -1.3333334 0.10000006
766 158.715896606 29.577465 -1.3333334 3.7528042e-07
767 158.715896606 29.577465 -2.0 3.7528042e-07
774 158.715896606 26.760563 -1.3333334 3.395394e-07
773 158.715896606 27.464788 -2.0 3.4847466e-07
262 158.715896606 2.8169014 1.3333334 0.10000004
263 158.715896606 2.8169014 0.6666667 0.10000004
270 158.715896606 0.70422536 2.0 0.10000001
269 158.715896606 1.4084507 0.6666667 0.10000002
1058 142.42755127 35.915493 1.3333334 0.100000456
1059 142.42755127 35.915493 0.6666667 0.100000456
1066 142.42755127 33.80282 2.0 0.100000426
1065 142.42755127 34.507042 0.6666667 0.10000044
554 142.42755127 13.380281 -0.6666667 0.10000017
555 142.42755127 12.676056 -0.6666667 0.100000165
562 142.42755127 22.535212 0.0 0.20000029
561 142.42755127 23.239437 -0.6666667 0.2000003
767 142.425201416 29.577465 -2.0 3.7528042e-07
768 142.425201416 28.87324 -1.3333334 3.6634515e-07
775 142.425201416 26.760563 -2.0 3.395394e-07
774 142.425201416 26.760563 -1.3333334 3.395394e-07
263 142.425201416 2.8169014 0.6666667 0.10000004
264 142.425201416 2.1126761 2.0 0.10000003
271 142.425201416 0.70422536 1.3333334 0.10000001
270 142.425201416 0.70422536 2.0 0.10000001
1042 162.207199097 33.09859 2.0 4.1995665e-07
1043 162.207199097 33.09859 1.3333334 4.1995665e-07
1050 162.207199097 31.690142 0.6666667 4.0208616e-07
1049 162.207199097 31.690142 1.3333334 4.0208616e-07
538 162.207199097 19.014084 -0.6666667 0.10000024
539 162.207199097 18.309858 0.0 0.10000023
546 162.207199097 16.197184 -0.6666667 0.10000021
545 162.207199097 16.197184 0.0 0.10000021
772 162.207138062 27.464788 -1.3333334 3.4847466e-07
773 162.207138062 27.464788 -2.0 3.4847466e-07
780 162.207138062 24.647888 -1.3333334 3.1273368e-07
779 162.207138062 25.352112 -2.0 3.2166892e-07
268 162.207138062 1.4084507 1.3333334 0.10000002
269 162.207138062 1.4084507 0.6666667 0.10000002
276 162.207138062 6.338028 2.0 0.20000008
275 162.207138062 -1.2688052e-09 0.6666667 0.1
1037 158.888778687 34.507042 1.3333334 4.3782714e-07
1038 158.888778687 34.507042 0.6666667 4.3782714e-07
1045 158.888778687 32.394367 2.0 4.110214e-07
1044 158.888778687 33.09859 0.6666667 4.1995665e-07
533 158.888778687 20.422535 0.0 0.10000026
534 158.888778687 20.422535 -0.6666667 0.10000026
541 158.888778687 17.605635 0.0 0.100000225
540 158.888778687 18.309858 -0.6666667 0.10000023
1276 158.888809204 42.957745 2.0 0.20000055
1277 158.888809204 42.957745 1.3333334 0.20000055
1284 158.888809204 41.549297 0.6666667 0.20000052
1283 158.888809204 41.549297 1.3333334 0.20000052
772 158.888809204 27.464788 -1.3333334 3.4847466e-07
773 158.888809204 27.464788 -2.0 3.4847466e-07
780 158.888809204 24.647888 -1.3333334 3.1273368e-07
779 158.888809204 25.352112 -2.0 3.2166892e-07
1039 143.505264282 33.80282 2.0 4.2889192e-07
1040 143.505264282 33.80282 1.3333334 4.2889192e-07
1047 143.505264282 32.394367 0.6666667 4.110214e-07
1046 143.505264282 32.394367 1.3333334 4.110214e-07
535 143.505264282 19.71831 0.0 0.100000255
536 143.505264282 19.71831 -0.6666667 0.100000255
543 143.505264282 16.90141 0.0 0.10000022
542 143.505264282 17.605635 -0.6666667 0.100000225
773 143.508926392 27.464788 -2.0 3.4847466e-07
774 143.508926392 26.760563 -1.3333334 3.395394e-07
781 143.508926392 24.647888 -2.0 3.1273368e-07
780 143.508926392 24.647888 -1.3333334 3.1273368e-07
269 143.508926392 1.4084507 0.6666667 0.10000002
270 143.508926392 0.70422536 2.0 0.10000001
277 143.508926392 6.338028 1.3333334 0.20000008
276 143.508926392 6.338028 2.0 0.20000008
780 162.21257019 24.647888 -1.3333334 3.1273368e-07
781 162.21257019 24.647888 -2.0 3.1273368e-07
788 162.21257019 34.507042 -1.3333334 0.10000044
787 162.21257019 35.21127 -2.0 0.10000045
276 162.21257019 6.338028 2.0 0.20000008
277 162.21257019 6.338028 1.3333334 0.20000008
284 162.21257019 4.9295774 0.6666667 0.20000006
283 162.21257019 4.9295774 1.3333334 0.20000006
1284 158.716171265 41.549297 0.6666667 0.20000052
1285 158.716171265 40.84507 2.0 0.20000052
1292 158.716171265 39.43662 1.3333334 0.20000051
1291 158.716171265 39.43662 2.0 0.20000051
780 158.716171265 24.647888 -1.3333334 3.1273368e-07
781 158.716171265 24.647888 -2.0 3.1273368e-07
788 158.716171265 34.507042 -1.3333334 0.10000044
787 158.716171265 35.21127 -2.0 0.10000045
557 166.311294556 24.647888 -0.6666667 0.20000032
558 166.311294556 23.943663 0.0 0.2000003
565 166.311294556 21.830986 -0.6666667 0.20000029
564 166.311294556 21.830986 0.0 0.20000029
53 166.311294556 6.338028 -1.3333334 0.10000008
54 166.311294556 6.338028 -2.0 0.10000008
61 166.311294556 3.5211267 -1.3333334 0.100000046
60 166.311294556 4.2253523 -2.0 0.10000005
1360 166.311325073 45.070423 -0.6666667 0.100000575
1361 166.311325073 45.070423 -1.3333334 0.100000575
1368 166.311325073 44.366196 -1.3333334 0.10000056
1367 166.311325073 44.366196 -0.6666667 0.10000056
856 166.311325073 35.915493 0.0 4.5569763e-07
857 166.311325073 35.915493 -0.6666667 4.5569763e-07
864 166.311325073 33.09859 0.0 4.1995665e-07
863 166.311325073 33.80282 -0.6666667 4.2889192e-07
564 165.798477173 21.830986 0.0 0.20000029
565 165.798477173 21.830986 -0.6666667 0.20000029
572 165.798477173 19.014084 0.0 0.20000024
571 165.798477173 19.71831 -0.6666667 0.20000026
60 165.798477173 4.2253523 -2.0 0.10000005
61 165.798477173 3.5211267 -1.3333334 0.100000046
68 165.798477173 1.4084507 -2.0 0.10000002
67 165.798477173 1.4084507 -1.3333334 0.10000002
1366 165.798446655 44.366196 0.0 0.10000056
1367 165.798446655 44.366196 -0.6666667 0.10000056
1374 165.798446655 43.661972 -0.6666667 0.10000055
1373 165.798446655 43.661972 0.0 0.10000055
862 165.798446655 33.80282 0.0 4.2889192e-07
863 165.798446655 33.80282 -0.6666667 4.2889192e-07
870 165.798446655 30.985916 0.0 3.931509e-07
869 165.798446655 31.690142 -0.6666667 4.0208616e-07
1069 165.361343384 33.09859 2.0 0.10000042
1070 165.361343384 33.09859 1.3333334 0.10000042
1077 165.361343384 31.690142 0.6666667 0.100000404
1076 165.361343384 31.690142 1.3333334 0.100000404
565 165.361343384 21.830986 -0.6666667 0.20000029
566 165.361343384 21.12676 0.0 0.20000027
573 165.361343384 19.014084 -0.6666667 0.20000024
572 165.361343384 19.014084 0.0 0.20000024
870 165.361373901 30.985916 0.0 3.931509e-07
871 165.361373901 30.985916 -0.6666667 3.931509e-07
878 165.361373901 28.169014 0.0 3.574099e-07
877 165.361373901 28.87324 -0.6666667 3.6634515e-07
366 165.361373901 10.56338 1.3333334 0.20000014
367 165.361373901 10.56338 0.6666667 0.20000014
374 165.361373901 8.450705 2.0 0.2000001
373 165.361373901 9.154929 0.6666667 0.20000012
1077 164.955780029 31.690142 0.6666667 0.100000404
1078 164.955780029 30.985916 2.0 0.1000004
1085 164.955780029 35.915493 1.3333334 0.20000046
1084 164.955780029 35.915493 2.0 0.20000046
573 164.955780029 19.014084 -0.6666667 0.20000024
574 164.955780029 18.309858 0.0 0.20000024
581 164.955780029 16.197184 -0.6666667 0.20000021
580 164.955780029 16.197184 0.0 0.20000021
1375 164.955749512 43.661972 -1.3333334 0.10000055
1376 164.955749512 43.661972 -2.0 0.10000055
1383 164.955749512 46.478874 0.6666667 0.2000006
1382 164.955749512 46.478874 1.3333334 0.2000006
871 164.955749512 30.985916 -0.6666667 3.931509e-07
872 164.955749512 30.28169 0.0 3.8421567e-07
879 164.955749512 28.169014 -0.6666667 3.574099e-07
878 164.955749512 28.169014 0.0 3.574099e-07
1081 164.558990479 36.619717 2.0 0.20000046
1082 164.558990479 36.619717 1.3333334 0.20000046
1089 164.558990479 35.21127 0.6666667 0.20000045
1088 164.558990479 35.21127 1.3333334 0.20000045
577 164.558990479 17.605635 -0.6666667 0.20000023
578 164.558990479 16.90141 0.0 0.20000021
585 164.558990479 14.788733 -0.6666667 0.2000002
584 164.558990479 14.788733 0.0 0.2000002
1384 164.559005737 46.478874 0.0 0.2000006
1385 164.559005737 46.478874 -0.6666667 0.2000006
1392 164.559005737 45.774647 -0.6666667 0.20000058
1391 164.559005737 45.774647 0.0 0.20000058
880 164.559005737 27.464788 0.0 3.4847466e-07
881 164.559005737 27.464788 -0.6666667 3.4847466e-07
888 164.559005737 24.647888 0.0 3.1273368e-07
887 164.559005737 25.352112 -0.6666667 3.2166892e-07
1088 164.186721802 35.21127 1.3333334 0.20000045
1089 164.186721802 35.21127 0.6666667 0.20000045
1096 164.186721802 33.09859 2.0 0.20000042
1095 164.186721802 33.80282 0.6666667 0.20000044
584 164.186721802 14.788733 0.0 0.2000002
585 164.186721802 14.788733 -0.6666667 0.2000002
592 164.186721802 18.309858 1.3333334 2.3231642e-07
591 164.186721802 18.309858 2.0 2.3231642e-07
1369 164.186721802 44.366196 -2.0 0.10000056
1370 164.186721802 43.661972 2.0 0.10000055
1377 164.186721802 47.183098 2.0 0.2000006
1376 164.186721802 43.661972 -2.0 0.10000055
865 164.186721802 33.09859 -0.6666667 4.1995665e-07
866 164.186721802 32.394367 0.0 4.110214e-07
873 164.186721802 30.28169 -0.6666667 3.8421567e-07
872 164.186721802 30.28169 0.0 3.8421567e-07
1095 163.858734131 33.80282 0.6666667 0.20000044
1096 163.858734131 33.09859 2.0 0.20000042
1103 163.858734131 31.690142 2.0 0.2000004
1102 163.858734131 32.394367 0.6666667 0.20000042
591 163.858734131 18.309858 2.0 2.3231642e-07
592 163.858734131 18.309858 1.3333334 2.3231642e-07
599 163.858734131 16.90141 0.6666667 2.1444595e-07
598 163.858734131 16.90141 1.3333334 2.1444595e-07
1355 163.858734131 45.774647 -2.0 0.10000058
1356 163.858734131 45.070423 2.0 0.100000575
1363 163.858734131 44.366196 2.0 0.10000056
1362 163.858734131 45.070423 -2.0 0.100000575
851 163.858734131 26.056337 -2.0 0.20000033
852 163.858734131 25.352112 -1.3333334 0.20000033
859 163.858734131 35.21127 -0.6666667 4.467624e-07
858 163.858734131 35.21127 0.0 4.467624e-07
1102 163.588821411 32.394367 0.6666667 0.20000042
1103 163.588821411 31.690142 2.0 0.2000004
1110 163.588821411 42.957745 -0.6666667 5.450501e-07
1109 163.588821411 42.957745 0.0 5.450501e-07
598 163.588821411 16.90141 1.3333334 2.1444595e-07
599 163.588821411 16.90141 0.6666667 2.1444595e-07
606 163.588821411 14.788733 2.0 1.876402e-07
605 163.588821411 15.492958 0.6666667 1.9657546e-07
1349 163.588821411 45.774647 2.0 0.10000058
1350 163.588821411 45.774647 1.3333334 0.10000058
1357 163.588821411 45.070423 1.3333334 0.100000575
1356 163.588821411 45.070423 2.0 0.100000575
845 163.588821411 27.464788 -1.3333334 0.20000035
846 163.588821411 27.464788 -2.0 0.20000035
853 163.588821411 25.352112 -2.0 0.20000033
852 163.588821411 25.352112 -1.3333334 0.20000033
1109 163.362243652 42.957745 0.0 5.450501e-07
1110 163.362243652 42.957745 -0.6666667 5.450501e-07
1117 163.362243652 41.549297 0.0 5.271796e-07
1116 163.362243652 42.25352 -2.0 5.3611484e-07
605 163.362243652 15.492958 0.6666667 1.9657546e-07
606 163.362243652 14.788733 2.0 1.876402e-07
613 163.362243652 13.380281 2.0 1.697697e-07
612 163.362243652 14.084507 0.6666667 1.7870495e-07
1334 163.362243652 43.661972 0.0 5.539854e-07
1335 163.362243652 43.661972 -0.6666667 5.539854e-07
1342 163.362243652 46.478874 2.0 0.10000059
1341 163.362243652 47.183098 0.0 0.1000006
830 163.362243652 32.394367 -1.3333334 0.20000042
831 163.362243652 32.394367 -2.0 0.20000042
838 163.362243652 29.577465 -1.3333334 0.20000038
837 163.362243652 30.28169 -2.0 0.20000039
1116 163.168624878 42.25352 -2.0 5.3611484e-07
1117 163.168624878 41.549297 0.0 5.271796e-07
1124 163.168624878 40.84507 -2.0 5.1824435e-07
1123 163.168624878 40.84507 -1.3333334 5.1824435e-07
612 163.168624878 14.084507 0.6666667 1.7870495e-07
613 163.168624878 13.380281 2.0 1.697697e-07
620 163.168624878 18.309858 1.3333334 0.10000023
619 163.168624878 18.309858 2.0 0.10000023
1328 163.16859436 44.366196 -0.6666667 5.629206e-07
1329 163.16859436 44.366196 -1.3333334 5.629206e-07
1336 163.16859436 43.661972 -1.3333334 5.539854e-07
1335 163.16859436 43.661972 -0.6666667 5.539854e-07
824 163.16859436 34.507042 -1.3333334 0.20000044
825 163.16859436 34.507042 -2.0 0.20000044
832 163.16859436 31.690142 -1.3333334 0.2000004
831 163.16859436 32.394367 -2.0 0.20000042
1123 162.989746094 40.84507 -1.3333334 5.1824435e-07
1124 162.989746094 40.84507 -2.0 5.1824435e-07
1131 162.989746094 39.43662 -1.3333334 5.0037386e-07
1130 162.989746094 39.43662 -0.6666667 5.0037386e-07
619 162.989746094 18.309858 2.0 0.10000023
620 162.989746094 18.309858 1.3333334 0.10000023
627 162.989746094 16.90141 0.6666667 0.10000022
626 162.989746094 16.90141 1.3333334 0.10000022
810 162.989746094 27.464788 -2.0 0.10000035
811 162.989746094 26.760563 -0.6666667 0.100000344
818 162.989746094 36.619717 -1.3333334 0.20000046
817 162.989746094 25.352112 -2.0 0.10000032
306 162.989746094 11.971831 2.0 1.5189921e-07
307 162.989746094 11.971831 1.3333334 1.5189921e-07
314 162.989746094 10.56338 0.6666667 1.3402871e-07
313 162.989746094 10.56338 1.3333334 1.3402871e-07
1130 162.823120117 39.43662 -0.6666667 5.0037386e-07
1131 162.823120117 39.43662 -1.3333334 5.0037386e-07
1138 162.823120117 38.028168 -0.6666667 4.8250337e-07
1137 162.823120117 38.028168 0.0 4.8250337e-07
626 162.823120117 16.90141 1.3333334 0.10000022
627 162.823120117 16.90141 0.6666667 0.10000022
634 162.823120117 14.788733 2.0 0.10000019
633 162.823120117 15.492958 0.6666667 0.100000195
1299 162.823120117 38.028168 0.6666667 0.20000048
1300 162.823120117 37.323944 2.0 0.20000048
1307 162.823120117 46.478874 -0.6666667 5.8972637e-07
1306 162.823120117 46.478874 0.0 5.8972637e-07
795 162.823120117 32.394367 -2.0 0.10000041
796 162.823120117 31.690142 -1.3333334 0.100000404
803 162.823120117 29.577465 -2.0 0.100000374
802 162.823120117 29.577465 -1.3333334 0.100000374
633 162.684906006 15.492958 0.6666667 0.100000195
634 162.684906006 14.788733 2.0 0.10000019
641 162.684906006 13.380281 1.3333334 0.10000017
640 162.684906006 13.380281 2.0 0.10000017
129 162.684906006 4.9295774 0.0 6.254673e-08
130 162.684906006 4.9295774 -0.6666667 6.254673e-08
137 162.684906006 2.1126761 0.0 2.6805743e-08
136 162.684906006 2.8169014 -0.6666667 3.5740992e-08
781 162.684906006 24.647888 -2.0 3.1273368e-07
782 162.684906006 36.619717 -1.3333334 0.10000046
789 162.684906006 34.507042 -2.0 0.10000044
788 162.684906006 34.507042 -1.3333334 0.10000044
277 162.684906006 6.338028 1.3333334 0.20000008
278 162.684906006 6.338028 0.6666667 0.20000008
285 162.684906006 4.2253523 2.0 0.20000006
284 162.684906006 4.9295774 0.6666667 0.20000006
578 162.572021484 16.90141 0.0 0.20000021
579 162.572021484 16.90141 -0.6666667 0.20000021
586 162.572021484 14.084507 0.0 0.20000018
585 162.572021484 14.788733 -0.6666667 0.2000002
74 162.572021484 11.971831 -2.0 0.20000015
75 162.572021484 11.267606 -1.3333334 0.20000015
82 162.572021484 9.154929 -2.0 0.20000012
81 162.572021484 9.154929 -1.3333334 0.20000012
768 162.572021484 28.87324 -1.3333334 3.6634515e-07
769 162.572021484 28.87324 -2.0 3.6634515e-07
776 162.572021484 26.056337 -1.3333334 3.3060417e-07
775 162.572021484 26.760563 -2.0 3.395394e-07
264 162.572021484 2.1126761 2.0 0.10000003
265 162.572021484 2.1126761 1.3333334 0.10000003
272 162.572021484 0.70422536 0.6666667 0.10000001
271 162.572021484 0.70422536 1.3333334 0.10000001
586 162.483978271 14.084507 0.0 0.20000018
587 162.483978271 14.084507 -0.6666667 0.20000018
594 162.483978271 17.605635 2.0 2.233812e-07
593 162.483978271 18.309858 0.6666667 2.3231642e-07
82 162.483978271 9.154929 -2.0 0.20000012
83 162.483978271 8.450705 -1.3333334 0.2000001
90 162.483978271 6.338028 -2.0 0.20000008
89 162.483978271 6.338028 -1.3333334 0.20000008
1266 162.48399353 39.43662 0.6666667 0.1000005
1267 162.48399353 38.732395 2.0 0.10000049
1274 162.48399353 37.323944 1.3333334 0.10000047
1273 162.48399353 37.323944 2.0 0.10000047
762 162.48399353 30.985916 -1.3333334 3.931509e-07
763 162.48399353 30.985916 -2.0 3.931509e-07
770 162.48399353 28.169014 -1.3333334 3.574099e-07
769 162.48399353 28.87324 -2.0 3.6634515e-07
593 162.418624878 18.309858 0.6666667 2.3231642e-07
594 162.418624878 17.605635 2.0 2.233812e-07
601 162.418624878 16.197184 1.3333334 2.055107e-07
600 162.418624878 16.197184 2.0 2.055107e-07
89 162.418624878 6.338028 -1.3333334 0.20000008
90 162.418624878 6.338028 -2.0 0.20000008
97 162.418624878 3.5211267 -1.3333334 0.20000005
96 162.418624878 4.2253523 -2.0 0.20000006
1287 162.418609619 40.84507 0.6666667 0.20000052
1288 162.418609619 40.140846 2.0 0.20000051
1295 162.418609619 38.732395 1.3333334 0.2000005
1294 162.418609619 38.732395 2.0 0.2000005
783 162.418609619 36.619717 -2.0 0.10000046
784 162.418609619 35.915493 -1.3333334 0.100000456
791 162.418609619 33.80282 -2.0 0.100000426
790 162.418609619 33.80282 -1.3333334 0.100000426
600 162.37550354 16.197184 2.0 2.055107e-07
601 162.37550354 16.197184 1.3333334 2.055107e-07
608 162.37550354 14.788733 0.6666667 1.876402e-07
607 162.37550354 14.788733 1.3333334 1.876402e-07
96 162.37550354 4.2253523 -2.0 0.20000006
97 162.37550354 3.5211267 -1.3333334 0.20000005
104 162.37550354 1.4084507 -2.0 0.20000002
103 162.37550354 1.4084507 -1.3333334 0.20000002
1308 162.375488281 46.478874 -1.3333334 5.8972637e-07
1309 162.375488281 46.478874 -2.0 5.8972637e-07
1316 162.375488281 45.774647 -2.0 5.807911e-07
1315 162.375488281 45.774647 -1.3333334 5.807911e-07
804 162.375488281 28.87324 -1.3333334 0.10000037
805 162.375488281 28.87324 -2.0 0.10000037
812 162.375488281 26.760563 -1.3333334 0.100000344
811 162.375488281 26.760563 -0.6666667 0.100000344
607 162.353042603 14.788733 1.3333334 1.876402e-07
608 162.353042603 14.788733 0.6666667 1.876402e-07
615 162.353042603 13.380281 0.6666667 1.697697e-07
614 162.353042603 13.380281 1.3333334 1.697697e-07
103 162.353042603 1.4084507 -1.3333334 0.20000002
104 162.353042603 1.4084507 -2.0 0.20000002
111 162.353042603 11.267606 0.0 1.4296397e-07
110 162.353042603 11.971831 -0.6666667 1.5189921e-07
601 161.780456543 16.197184 1.3333334 2.055107e-07
602 161.780456543 16.197184 0.6666667 2.055107e-07
609 161.780456543 14.788733 0.0 1.876402e-07
608 161.780456543 14.788733 0.6666667 1.876402e-07
97 161.780456543 3.5211267 -1.3333334 0.20000005
98 161.780456543 3.5211267 -2.0 0.20000005
105 161.780456543 0.70422536 -1.3333334 0.20000002
104 161.780456543 1.4084507 -2.0 0.20000002
594 161.808441162 17.605635 2.0 2.233812e-07
595 161.808441162 17.605635 1.3333334 2.233812e-07
602 161.808441162 16.197184 0.6666667 2.055107e-07
601 161.808441162 16.197184 1.3333334 2.055107e-07
90 161.808441162 6.338028 -2.0 0.20000008
91 161.808441162 5.633803 -1.3333334 0.20000008
98 161.808441162 3.5211267 -2.0 0.20000005
97 161.808441162 3.5211267 -1.3333334 0.20000005
587 161.85055542 14.084507 -0.6666667 0.20000018
588 161.85055542 13.380281 0.0 0.20000017
595 161.85055542 17.605635 1.3333334 2.233812e-07
594 161.85055542 17.605635 2.0 2.233812e-07
83 161.85055542 8.450705 -1.3333334 0.2000001
84 161.85055542 8.450705 -2.0 0.2000001
91 161.85055542 5.633803 -1.3333334 0.20000008
90 161.85055542 6.338028 -2.0 0.20000008
769 161.850570679 28.87324 -2.0 3.6634515e-07
770 161.850570679 28.169014 -1.3333334 3.574099e-07
777 161.850570679 26.056337 -2.0 3.3060417e-07
776 161.850570679 26.056337 -1.3333334 3.3060417e-07
265 161.850570679 2.1126761 1.3333334 0.10000003
266 161.850570679 2.1126761 0.6666667 0.10000003
273 161.850570679 -1.2688052e-09 2.0 0.1
272 161.850570679 0.70422536 0.6666667 0.10000001
790 161.808425903 33.80282 -1.3333334 0.100000426
791 161.808425903 33.80282 -2.0 0.100000426
798 161.808425903 30.985916 -1.3333334 0.1000004
797 161.808425903 31.690142 -2.0 0.100000404
286 161.808425903 4.2253523 1.3333334 0.20000006
287 161.808425903 4.2253523 0.6666667 0.20000006
294 161.808425903 2.1126761 2.0 0.20000003
293 161.808425903 2.8169014 0.6666667 0.20000003
811 161.780456543 26.760563 -0.6666667 0.100000344
812 161.780456543 26.760563 -1.3333334 0.100000344
819 161.780456543 36.619717 -2.0 0.20000046
818 161.780456543 36.619717 -1.3333334 0.20000046
307 161.780456543 11.971831 1.3333334 1.5189921e-07
308 161.780456543 11.971831 0.6666667 1.5189921e-07
315 161.780456543 9.859155 2.0 1.2509346e-07
314 161.780456543 10.56338 0.6666667 1.3402871e-07
1111 161.180923462 42.957745 -1.3333334 5.450501e-07
1112 161.180923462 42.957745 -2.0 5.450501e-07
1119 161.180923462 41.549297 -1.3333334 5.271796e-07
1118 161.180923462 41.549297 -0.6666667 5.271796e-07
607 161.180923462 14.788733 1.3333334 1.876402e-07
608 161.180923462 14.788733 0.6666667 1.876402e-07
615 161.180923462 13.380281 0.6666667 1.697697e-07
614 161.180923462 13.380281 1.3333334 1.697697e-07
1104 161.188232422 31.690142 1.3333334 0.2000004
1105 161.188232422 31.690142 0.6666667 0.2000004
1112 161.188232422 42.957745 -2.0 5.450501e-07
1111 161.188232422 42.957745 -1.3333334 5.450501e-07
600 161.188232422 16.197184 2.0 2.055107e-07
601 161.188232422 16.197184 1.3333334 2.055107e-07
608 161.188232422 14.788733 0.6666667 1.876402e-07
607 161.188232422 14.788733 1.3333334 1.876402e-07
1097 161.201431274 33.09859 1.3333334 0.20000042
1098 161.201431274 33.09859 0.6666667 0.20000042
1105 161.201431274 31.690142 0.6666667 0.2000004
1104 161.201431274 31.690142 1.3333334 0.2000004
593 161.201431274 18.309858 0.6666667 2.3231642e-07
594 161.201431274 17.605635 2.0 2.233812e-07
601 161.201431274 16.197184 1.3333334 2.055107e-07
600 161.201431274 16.197184 2.0 2.055107e-07
1294 161.201431274 38.732395 2.0 0.2000005
1295 161.201431274 38.732395 1.3333334 0.2000005
1302 161.201431274 37.323944 0.6666667 0.20000048
1301 161.201431274 37.323944 1.3333334 0.20000048
790 161.201431274 33.80282 -1.3333334 0.100000426
791 161.201431274 33.80282 -2.0 0.100000426
798 161.201431274 30.985916 -1.3333334 0.1000004
797 161.201431274 31.690142 -2.0 0.100000404
1090 161.220535278 34.507042 2.0 0.20000044
1091 161.220535278 34.507042 1.3333334 0.20000044
1098 161.220535278 33.09859 0.6666667 0.20000042
1097 161.220535278 33.09859 1.3333334 0.20000042
586 161.220535278 14.084507 0.0 0.20000018
587 161.220535278 14.084507 -0.6666667 0.20000018
594 161.220535278 17.605635 2.0 2.233812e-07
593 161.220535278 18.309858 0.6666667 2.3231642e-07
1273 161.220535278 37.323944 2.0 0.10000047
1274 161.220535278 37.323944 1.3333334 0.10000047
1281 161.220535278 42.25352 0.6666667 0.20000054
1280 161.220535278 42.25352 1.3333334 0.20000054
769 161.220535278 28.87324 -2.0 3.6634515e-07
770 161.220535278 28.169014 -1.3333334 3.574099e-07
777 161.220535278 26.056337 -2.0 3.3060417e-07
776 161.220535278 26.056337 -1.3333334 3.3060417e-07
580 161.907302856 16.197184 0.0 0.20000021
581 161.907302856 16.197184 -0.6666667 0.20000021
588 161.907302856 13.380281 0.0 0.20000017
587 161.907302856 14.084507 -0.6666667 0.20000018
76 161.907302856 11.267606 -2.0 0.20000015
77 161.907302856 10.56338 -1.3333334 0.20000014
84 161.907302856 8.450705 -2.0 0.2000001
83 161.907302856 8.450705 -1.3333334 0.2000001
775 161.907302856 26.760563 -2.0 3.395394e-07
776 161.907302856 26.056337 -1.3333334 3.3060417e-07
783 161.907302856 36.619717 -2.0 0.10000046
782 161.907302856 36.619717 -1.3333334 0.10000046
271 161.907302856 0.70422536 1.3333334 0.10000001
272 161.907302856 0.70422536 0.6666667 0.10000001
279 161.907302856 5.633803 2.0 0.20000008
278 161.907302856 6.338028 0.6666667 0.20000008
782 161.246383667 36.619717 -1.3333334 0.10000046
783 161.246383667 36.619717 -2.0 0.10000046
790 161.246383667 33.80282 -1.3333334 0.100000426
789 161.246383667 34.507042 -2.0 0.10000044
278 161.246383667 6.338028 0.6666667 0.20000008
279 161.246383667 5.633803 2.0 0.20000008
286 161.246383667 4.2253523 1.3333334 0.20000006
285 161.246383667 4.2253523 2.0 0.20000006
1137 161.979995728 38.028168 0.0 4.8250337e-07
1138 161.979995728 38.028168 -0.6666667 4.8250337e-07
1145 161.979995728 36.619717 -1.3333334 4.6463285e-07
1144 161.979995728 37.323944 -2.0 4.7356812e-07
633 161.979995728 15.492958 0.6666667 0.100000195
634 161.979995728 14.788733 2.0 0.10000019
641 161.979995728 13.380281 1.3333334 0.10000017
640 161.979995728 13.380281 2.0 0.10000017
1285 161.979980469 40.84507 2.0 0.20000052
1286 161.979980469 40.84507 1.3333334 0.20000052
1293 161.979980469 39.43662 0.6666667 0.20000051
1292 161.979980469 39.43662 1.3333334 0.20000051
781 161.979980469 24.647888 -2.0 3.1273368e-07
782 161.979980469 36.619717 -1.3333334 0.10000046
789 161.979980469 34.507042 -2.0 0.10000044
788 161.979980469 34.507042 -1.3333334 0.10000044
1138 161.279373169 38.028168 -0.6666667 4.8250337e-07
1139 161.279373169 38.028168 -1.3333334 4.8250337e-07
1146 161.279373169 36.619717 -2.0 4.6463285e-07
1145 161.279373169 36.619717 -1.3333334 4.6463285e-07
634 161.279373169 14.788733 2.0 0.10000019
635 161.279373169 14.788733 1.3333334 0.10000019
642 161.279373169 13.380281 0.6666667 0.10000017
641 161.279373169 13.380281 1.3333334 0.10000017
631 162.06993103 15.492958 2.0 0.100000195
632 162.06993103 15.492958 1.3333334 0.100000195
639 162.06993103 14.084507 0.6666667 0.10000018
638 162.06993103 14.084507 1.3333334 0.10000018
127 162.06993103 5.633803 0.0 7.1481985e-08
128 162.06993103 5.633803 -0.6666667 7.1481985e-08
135 162.06993103 2.8169014 0.0 3.5740992e-08
134 162.06993103 3.5211267 -0.6666667 4.4676238e-08
796 162.06993103 31.690142 -1.3333334 0.100000404
797 162.06993103 31.690142 -2.0 0.100000404
804 162.06993103 28.87324 -1.3333334 0.10000037
803 162.06993103 29.577465 -2.0 0.100000374
292 162.06993103 2.8169014 1.3333334 0.20000003
293 162.06993103 2.8169014 0.6666667 0.20000003
300 162.06993103 0.70422536 2.0 0.20000002
299 162.06993103 1.4084507 0.6666667 0.20000002
1135 161.322174072 38.732395 -1.3333334 4.9143864e-07
1136 161.322174072 38.732395 -2.0 4.9143864e-07
1143 161.322174072 37.323944 -1.3333334 4.7356812e-07
1142 161.322174072 37.323944 -0.6666667 4.7356812e-07
631 161.322174072 15.492958 2.0 0.100000195
632 161.322174072 15.492958 1.3333334 0.100000195
639 161.322174072 14.084507 0.6666667 0.10000018
638 161.322174072 14.084507 1.3333334 0.10000018
1300 161.322158813 37.323944 2.0 0.20000048
1301 161.322158813 37.323944 1.3333334 0.20000048
1308 161.322158813 46.478874 -1.3333334 5.8972637e-07
1307 161.322158813 46.478874 -0.6666667 5.8972637e-07
796 161.322158813 31.690142 -1.3333334 0.100000404
797 161.322158813 31.690142 -2.0 0.100000404
804 161.322158813 28.87324 -1.3333334 0.10000037
803 161.322158813 29.577465 -2.0 0.100000374
624 162.179489136 17.605635 0.6666667 0.100000225
625 162.179489136 16.90141 2.0 0.10000022
632 162.179489136 15.492958 1.3333334 0.100000195
631 162.179489136 15.492958 2.0 0.100000195
120 162.179489136 8.450705 -0.6666667 1.0722298e-07
121 162.179489136 7.746479 0.0 9.828773e-08
128 162.179489136 5.633803 -0.6666667 7.1481985e-08
127 162.179489136 5.633803 0.0 7.1481985e-08
1314 162.179473877 45.774647 -0.6666667 5.807911e-07
1315 162.179473877 45.774647 -1.3333334 5.807911e-07
1322 162.179473877 45.070423 -1.3333334 5.718559e-07
1321 162.179473877 45.070423 -0.6666667 5.718559e-07
810 162.179473877 27.464788 -2.0 0.10000035
811 162.179473877 26.760563 -0.6666667 0.100000344
818 162.179473877 36.619717 -1.3333334 0.20000046
817 162.179473877 25.352112 -2.0 0.10000032
1128 161.374923706 40.140846 -2.0 5.0930913e-07
1129 161.374923706 39.43662 0.0 5.0037386e-07
1136 161.374923706 38.732395 -2.0 4.9143864e-07
1135 161.374923706 38.732395 -1.3333334 4.9143864e-07
624 161.374923706 17.605635 0.6666667 0.100000225
625 161.374923706 16.90141 2.0 0.10000022
632 161.374923706 15.492958 1.3333334 0.100000195
631 161.374923706 15.492958 2.0 0.100000195
802 161.374908447 29.577465 -1.3333334 0.100000374
803 161.374908447 29.577465 -2.0 0.100000374
810 161.374908447 27.464788 -2.0 0.10000035
809 161.374908447 27.464788 -1.3333334 0.10000035
298 161.374908447 1.4084507 1.3333334 0.20000002
299 161.374908447 1.4084507 0.6666667 0.20000002
306 161.374908447 11.971831 2.0 1.5189921e-07
305 161.374908447 -2.5376103e-09 0.6666667 0.2
617 162.313156128 12.676056 1.3333334 1.6083446e-07
618 162.313156128 12.676056 0.6666667 1.6083446e-07
625 162.313156128 16.90141 2.0 0.10000022
624 162.313156128 17.605635 0.6666667 0.100000225
113 162.313156128 10.56338 0.0 1.3402871e-07
114 162.313156128 10.56338 -0.6666667 1.3402871e-07
121 162.313156128 7.746479 0.0 9.828773e-08
120 162.313156128 8.450705 -0.6666667 1.0722298e-07
816 162.313156128 25.352112 -1.3333334 0.10000032
817 162.313156128 25.352112 -2.0 0.10000032
824 162.313156128 34.507042 -1.3333334 0.20000044
823 162.313156128 35.21127 -2.0 0.20000045
312 162.313156128 10.56338 2.0 1.3402871e-07
313 162.313156128 10.56338 1.3333334 1.3402871e-07
320 162.313156128 9.154929 0.6666667 1.1615821e-07
319 162.313156128 9.154929 1.3333334 1.1615821e-07
817 161.43989563 25.352112 -2.0 0.10000032
818 161.43989563 36.619717 -1.3333334 0.20000046
825 161.43989563 34.507042 -2.0 0.20000044
824 161.43989563 34.507042 -1.3333334 0.20000044
313 161.43989563 10.56338 1.3333334 1.3402871e-07
314 161.43989563 10.56338 0.6666667 1.3402871e-07
321 161.43989563 8.450705 2.0 1.0722298e-07
320 161.43989563 9.154929 0.6666667 1.1615821e-07
610 162.470809937 14.084507 2.0 1.7870495e-07
611 162.470809937 14.084507 1.3333334 1.7870495e-07
618 162.470809937 12.676056 0.6666667 1.6083446e-07
617 162.470809937 12.676056 1.3333334 1.6083446e-07
106 162.470809937 0.70422536 -2.0 0.20000002
107 162.470809937 -2.5376103e-09 -1.3333334 0.2
114 162.470809937 10.56338 -0.6666667 1.3402871e-07
113 162.470809937 10.56338 0.0 1.3402871e-07
831 162.470809937 32.394367 -2.0 0.20000042
832 162.470809937 31.690142 -1.3333334 0.2000004
839 162.470809937 29.577465 -2.0 0.20000038
838 162.470809937 29.577465 -1.3333334 0.20000038
327 162.470809937 7.0422535 2.0 8.9352476e-08
328 162.470809937 7.0422535 1.3333334 8.9352476e-08
335 162.470809937 11.971831 0.6666667 0.10000015
334 162.470809937 11.971831 1.3333334 0.10000015
1114 161.513824463 42.25352 -0.6666667 5.3611484e-07
1115 161.513824463 42.25352 -1.3333334 5.3611484e-07
1122 161.513824463 40.84507 -0.6666667 5.1824435e-07
1121 161.513824463 40.84507 0.0 5.1824435e-07
610 161.513824463 14.084507 2.0 1.7870495e-07
611 161.513824463 14.084507 1.3333334 1.7870495e-07
618 161.513824463 12.676056 0.6666667 1.6083446e-07
617 161.513824463 12.676056 1.3333334 1.6083446e-07
1335 161.513824463 43.661972 -0.6666667 5.539854e-07
1336 161.513824463 43.661972 -1.3333334 5.539854e-07
1343 161.513824463 46.478874 1.3333334 0.10000059
1342 161.513824463 46.478874 2.0 0.10000059
831 161.513824463 32.394367 -2.0 0.20000042
832 161.513824463 31.690142 -1.3333334 0.2000004
839 161.513824463 29.577465 -2.0 0.20000038
838 161.513824463 29.577465 -1.3333334 0.20000038
603 162.653320312 15.492958 2.0 1.9657546e-07
604 162.653320312 15.492958 1.3333334 1.9657546e-07
611 162.653320312 14.084507 1.3333334 1.7870495e-07
610 162.653320312 14.084507 2.0 1.7870495e-07
99 162.653320312 2.8169014 -1.3333334 0.20000003
100 162.653320312 2.8169014 -2.0 0.20000003
107 162.653320312 -2.5376103e-09 -1.3333334 0.2
106 162.653320312 0.70422536 -2.0 0.20000002
837 162.653305054 30.28169 -2.0 0.20000039
838 162.653305054 29.577465 -1.3333334 0.20000038
845 162.653305054 27.464788 -1.3333334 0.20000035
844 162.653305054 27.464788 -0.6666667 0.20000035
333 162.653305054 11.971831 2.0 0.10000015
334 162.653305054 11.971831 1.3333334 0.10000015
341 162.653305054 10.56338 0.6666667 0.100000136
340 162.653305054 10.56338 1.3333334 0.100000136
1107 161.600494385 30.985916 1.3333334 0.20000039
1108 161.600494385 30.985916 0.6666667 0.20000039
1115 161.600494385 42.25352 -1.3333334 5.3611484e-07
1114 161.600494385 42.25352 -0.6666667 5.3611484e-07
603 161.600494385 15.492958 2.0 1.9657546e-07
604 161.600494385 15.492958 1.3333334 1.9657546e-07
611 161.600494385 14.084507 1.3333334 1.7870495e-07
610 161.600494385 14.084507 2.0 1.7870495e-07
1341 161.600479126 47.183098 0.0 0.1000006
1342 161.600479126 46.478874 2.0 0.10000059
1349 161.600479126 45.774647 2.0 0.10000058
1348 161.600479126 46.478874 -2.0 0.10000059
837 161.600479126 30.28169 -2.0 0.20000039
838 161.600479126 29.577465 -1.3333334 0.20000038
845 161.600479126 27.464788 -1.3333334 0.20000035
844 161.600479126 27.464788 -0.6666667 0.20000035
596 162.863098145 17.605635 0.6666667 2.233812e-07
597 162.863098145 16.90141 2.0 2.1444595e-07
604 162.863098145 15.492958 1.3333334 1.9657546e-07
603 162.863098145 15.492958 2.0 1.9657546e-07
92 162.863098145 5.633803 -2.0 0.20000008
93 162.863098145 4.9295774 -1.3333334 0.20000006
100 162.863098145 2.8169014 -2.0 0.20000003
99 162.863098145 2.8169014 -1.3333334 0.20000003
852 162.863113403 25.352112 -1.3333334 0.20000033
853 162.863113403 25.352112 -2.0 0.20000033
860 162.863113403 34.507042 0.0 4.3782714e-07
859 162.863113403 35.21127 -0.6666667 4.467624e-07
348 162.863113403 8.450705 2.0 0.100000106
349 162.863113403 8.450705 1.3333334 0.100000106
356 162.863113403 7.0422535 0.6666667 0.10000009
355 162.863113403 7.0422535 1.3333334 0.10000009
1100 161.69581604 32.394367 2.0 0.20000042
1101 161.69581604 32.394367 1.3333334 0.20000042
1108 161.69581604 30.985916 0.6666667 0.20000039
1107 161.69581604 30.985916 1.3333334 0.20000039
596 161.69581604 17.605635 0.6666667 2.233812e-07
597 161.69581604 16.90141 2.0 2.1444595e-07
604 161.69581604 15.492958 1.3333334 1.9657546e-07
603 161.69581604 15.492958 2.0 1.9657546e-07
1356 161.695800781 45.070423 2.0 0.100000575
1357 161.695800781 45.070423 1.3333334 0.100000575
1364 161.695800781 44.366196 1.3333334 0.10000056
1363 161.695800781 44.366196 2.0 0.10000056
852 161.695800781 25.352112 -1.3333334 0.20000033
853 161.695800781 25.352112 -2.0 0.20000033
860 161.695800781 34.507042 0.0 4.3782714e-07
859 161.695800781 35.21127 -0.6666667 4.467624e-07
589 163.115447998 13.380281 -0.6666667 0.20000017
590 163.115447998 12.676056 -0.6666667 0.20000017
597 163.115447998 16.90141 2.0 2.1444595e-07
596 163.115447998 17.605635 0.6666667 2.233812e-07
85 163.115447998 7.746479 -1.3333334 0.2000001
86 163.115447998 7.746479 -2.0 0.2000001
93 163.115447998 4.9295774 -1.3333334 0.20000006
92 163.115447998 5.633803 -2.0 0.20000008
866 163.115447998 32.394367 0.0 4.110214e-07
867 163.115447998 32.394367 -0.6666667 4.110214e-07
874 163.115447998 29.577465 0.0 3.7528042e-07
873 163.115447998 30.28169 -0.6666667 3.8421567e-07
362 163.115447998 11.267606 2.0 0.20000015
363 163.115447998 11.267606 1.3333334 0.20000015
370 163.115447998 9.859155 0.6666667 0.20000012
369 163.115447998 9.859155 1.3333334 0.20000012
1093 161.818252563 33.80282 2.0 0.20000044
1094 161.818252563 33.80282 1.3333334 0.20000044
1101 161.818252563 32.394367 1.3333334 0.20000042
1100 161.818252563 32.394367 2.0 0.20000042
589 161.818252563 13.380281 -0.6666667 0.20000017
590 161.818252563 12.676056 -0.6666667 0.20000017
597 161.818252563 16.90141 2.0 2.1444595e-07
596 161.818252563 17.605635 0.6666667 2.233812e-07
1370 161.818237305 43.661972 2.0 0.10000055
1371 161.818237305 43.661972 1.3333334 0.10000055
1378 161.818237305 47.183098 1.3333334 0.2000006
1377 161.818237305 47.183098 2.0 0.2000006
866 161.818237305 32.394367 0.0 4.110214e-07
867 161.818237305 32.394367 -0.6666667 4.110214e-07
874 161.818237305 29.577465 0.0 3.7528042e-07
873 161.818237305 30.28169 -0.6666667 3.8421567e-07
582 163.375549316 15.492958 0.0 0.2000002
583 163.375549316 15.492958 -0.6666667 0.2000002
590 163.375549316 12.676056 -0.6666667 0.20000017
589 163.375549316 13.380281 -0.6666667 0.20000017
78 163.375549316 10.56338 -2.0 0.20000014
79 163.375549316 9.859155 -1.3333334 0.20000012
86 163.375549316 7.746479 -2.0 0.2000001
85 163.375549316 7.746479 -1.3333334 0.2000001
872 163.375549316 30.28169 0.0 3.8421567e-07
873 163.375549316 30.28169 -0.6666667 3.8421567e-07
880 163.375549316 27.464788 0.0 3.4847466e-07
879 163.375549316 28.169014 -0.6666667 3.574099e-07
368 163.375549316 9.859155 2.0 0.20000012
369 163.375549316 9.859155 1.3333334 0.20000012
376 163.375549316 8.450705 0.6666667 0.2000001
375 163.375549316 8.450705 1.3333334 0.2000001
1086 161.985870361 35.915493 0.6666667 0.20000046
1087 161.985870361 35.21127 2.0 0.20000045
1094 161.985870361 33.80282 1.3333334 0.20000044
1093 161.985870361 33.80282 2.0 0.20000044
582 161.985870361 15.492958 0.0 0.2000002
583 161.985870361 15.492958 -0.6666667 0.2000002
590 161.985870361 12.676056 -0.6666667 0.20000017
589 161.985870361 13.380281 -0.6666667 0.20000017
575 163.667312622 18.309858 -0.6666667 0.20000024
576 163.667312622 17.605635 0.0 0.20000023
583 163.667312622 15.492958 -0.6666667 0.2000002
582 163.667312622 15.492958 0.0 0.2000002
71 163.667312622 -1.2688052e-09 -1.3333334 0.1
72 163.667312622 -1.2688052e-09 -2.0 0.1
79 163.667312622 9.859155 -1.3333334 0.20000012
78 163.667312622 10.56338 -2.0 0.20000014
1380 163.667312622 47.183098 0.0 0.2000006
1381 163.667312622 46.478874 2.0 0.2000006
1388 163.667312622 45.774647 2.0 0.20000058
1387 163.667312622 46.478874 -2.0 0.2000006
876 163.667312622 28.87324 0.0 3.6634515e-07
877 163.667312622 28.87324 -0.6666667 3.6634515e-07
884 163.667312622 26.056337 0.0 3.3060417e-07
883 163.667312622 26.760563 -0.6666667 3.395394e-07
1079 162.20375061 30.985916 1.3333334 0.1000004
1080 162.20375061 30.985916 0.6666667 0.1000004
1087 162.20375061 35.21127 2.0 0.20000045
1086 162.20375061 35.915493 0.6666667 0.20000046
575 162.20375061 18.309858 -0.6666667 0.20000024
576 162.20375061 17.605635 0.0 0.20000023
583 162.20375061 15.492958 -0.6666667 0.2000002
582 162.20375061 15.492958 0.0 0.2000002
1070 163.95463562 33.09859 1.3333334 0.10000042
1071 163.95463562 33.09859 0.6666667 0.10000042
1078 163.95463562 30.985916 2.0 0.1000004
1077 163.95463562 31.690142 0.6666667 0.100000404
566 163.95463562 21.12676 0.0 0.20000027
567 163.95463562 21.12676 -0.6666667 0.20000027
574 163.95463562 18.309858 0.0 0.20000024
573 163.95463562 19.014084 -0.6666667 0.20000024
871 163.954650879 30.985916 -0.6666667 3.931509e-07
872 163.954650879 30.28169 0.0 3.8421567e-07
879 163.954650879 28.169014 -0.6666667 3.574099e-07
878 163.954650879 28.169014 0.0 3.574099e-07
367 163.954650879 10.56338 0.6666667 0.20000014
368 163.954650879 9.859155 2.0 0.20000012
375 163.954650879 8.450705 1.3333334 0.2000001
374 163.954650879 8.450705 2.0 0.2000001
572 162.423400879 19.014084 0.0 0.20000024
573 162.423400879 19.014084 -0.6666667 0.20000024
580 162.423400879 16.197184 0.0 0.20000021
579 162.423400879 16.90141 -0.6666667 0.20000021
68 162.423400879 1.4084507 -2.0 0.10000002
69 162.423400879 0.70422536 -1.3333334 0.10000001
76 162.423400879 11.267606 -2.0 0.20000015
75 162.423400879 11.267606 -1.3333334 0.20000015
876 162.423416138 28.87324 0.0 3.6634515e-07
877 162.423416138 28.87324 -0.6666667 3.6634515e-07
884 162.423416138 26.056337 0.0 3.3060417e-07
883 162.423416138 26.760563 -0.6666667 3.395394e-07
372 162.423416138 9.154929 1.3333334 0.20000012
373 162.423416138 9.154929 0.6666667 0.20000012
380 162.423416138 7.0422535 2.0 0.20000009
379 162.423416138 7.746479 0.6666667 0.2000001
1068 164.262573242 33.80282 0.6666667 0.100000426
1069 164.262573242 33.09859 2.0 0.10000042
1076 164.262573242 31.690142 1.3333334 0.100000404
1075 164.262573242 31.690142 2.0 0.100000404
564 164.262573242 21.830986 0.0 0.20000029
565 164.262573242 21.830986 -0.6666667 0.20000029
572 164.262573242 19.014084 0.0 0.20000024
571 164.262573242 19.71831 -0.6666667 0.20000026
1367 164.262542725 44.366196 -0.6666667 0.10000056
1368 164.262542725 44.366196 -1.3333334 0.10000056
1375 164.262542725 43.661972 -1.3333334 0.10000055
1374 164.262542725 43.661972 -0.6666667 0.10000055
863 164.262542725 33.80282 -0.6666667 4.2889192e-07
864 164.262542725 33.09859 0.0 4.1995665e-07
871 164.262542725 30.985916 -0.6666667 3.931509e-07
870 164.262542725 30.985916 0.0 3.931509e-07
571 162.64276123 19.71831 -0.6666667 0.20000026
572 162.64276123 19.014084 0.0 0.20000024
579 162.64276123 16.90141 -0.6666667 0.20000021
578 162.64276123 16.90141 0.0 0.20000021
67 162.64276123 1.4084507 -1.3333334 0.10000002
68 162.64276123 1.4084507 -2.0 0.10000002
75 162.64276123 11.267606 -1.3333334 0.20000015
74 162.64276123 11.971831 -2.0 0.20000015
864 162.642745972 33.09859 0.0 4.1995665e-07
865 162.642745972 33.09859 -0.6666667 4.1995665e-07
872 162.642745972 30.28169 0.0 3.8421567e-07
871 162.642745972 30.985916 -0.6666667 3.931509e-07
360 162.642745972 11.971831 1.3333334 0.20000015
361 162.642745972 11.971831 0.6666667 0.20000015
368 162.642745972 9.859155 2.0 0.20000012
367 162.642745972 10.56338 0.6666667 0.20000014
1061 164.650222778 35.21127 1.3333334 0.10000045
1062 164.650222778 35.21127 0.6666667 0.10000045
1069 164.650222778 33.09859 2.0 0.10000042
1068 164.650222778 33.80282 0.6666667 0.100000426
557 164.650222778 24.647888 -0.6666667 0.20000032
558 164.650222778 23.943663 0.0 0.2000003
565 164.650222778 21.830986 -0.6666667 0.20000029
564 164.650222778 21.830986 0.0 0.20000029
857 164.650238037 35.915493 -0.6666667 4.5569763e-07
858 164.650238037 35.21127 0.0 4.467624e-07
865 164.650238037 33.09859 -0.6666667 4.1995665e-07
864 164.650238037 33.09859 0.0 4.1995665e-07
353 164.650238037 7.746479 0.6666667 0.1000001
354 164.650238037 7.0422535 2.0 0.10000009
361 164.650238037 11.971831 0.6666667 0.20000015
360 164.650238037 11.971831 1.3333334 0.20000015
558 162.913314819 23.943663 0.0 0.2000003
559 162.913314819 23.943663 -0.6666667 0.2000003
566 162.913314819 21.12676 0.0 0.20000027
565 162.913314819 21.830986 -0.6666667 0.20000029
54 162.913314819 6.338028 -2.0 0.10000008
55 162.913314819 5.633803 -1.3333334 0.100000076
62 162.913314819 3.5211267 -2.0 0.100000046
61 162.913314819 3.5211267 -1.3333334 0.100000046
858 162.913299561 35.21127 0.0 4.467624e-07
859 162.913299561 35.21127 -0.6666667 4.467624e-07
866 162.913299561 32.394367 0.0 4.110214e-07
865 162.913299561 33.09859 -0.6666667 4.1995665e-07
354 162.913299561 7.0422535 2.0 0.10000009
355 162.913299561 7.0422535 1.3333334 0.10000009
362 162.913299561 11.267606 2.0 0.20000015
361 162.913299561 11.971831 0.6666667 0.20000015
1062 158.180130005 35.21127 0.6666667 0.10000045
1063 158.180130005 34.507042 2.0 0.10000044
1070 158.180130005 33.09859 1.3333334 0.10000042
1069 158.180130005 33.09859 2.0 0.10000042
558 158.180130005 23.943663 0.0 0.2000003
559 158.180130005 23.943663 -0.6666667 0.2000003
566 158.180130005 21.12676 0.0 0.20000027
565 158.180130005 21.830986 -0.6666667 0.20000029
1063 152.420928955 34.507042 2.0 0.10000044
1064 152.420928955 34.507042 1.3333334 0.10000044
1071 152.420928955 33.09859 0.6666667 0.10000042
1070 152.420928955 33.09859 1.3333334 0.10000042
559 152.420928955 23.943663 -0.6666667 0.2000003
560 152.420928955 23.239437 0.0 0.2000003
567 152.420928955 21.12676 -0.6666667 0.20000027
566 152.420928955 21.12676 0.0 0.20000027
1075 160.7628479 31.690142 2.0 0.100000404
1076 160.7628479 31.690142 1.3333334 0.100000404
1083 160.7628479 36.619717 0.6666667 0.20000046
1082 160.7628479 36.619717 1.3333334 0.20000046
571 160.7628479 19.71831 -0.6666667 0.20000026
572 160.7628479 19.014084 0.0 0.20000024
579 160.7628479 16.90141 -0.6666667 0.20000021
578 160.7628479 16.90141 0.0 0.20000021
565 158.094680786 21.830986 -0.6666667 0.20000029
566 158.094680786 21.12676 0.0 0.20000027
573 158.094680786 19.014084 -0.6666667 0.20000024
572 158.094680786 19.014084 0.0 0.20000024
61 158.094680786 3.5211267 -1.3333334 0.100000046
62 158.094680786 3.5211267 -2.0 0.100000046
69 158.094680786 0.70422536 -1.3333334 0.10000001
68 158.094680786 1.4084507 -2.0 0.10000002
1361 160.893676758 45.070423 -1.3333334 0.100000575
1362 160.893676758 45.070423 -2.0 0.100000575
1369 160.893676758 44.366196 -2.0 0.10000056
1368 160.893676758 44.366196 -1.3333334 0.10000056
857 160.893676758 35.915493 -0.6666667 4.5569763e-07
858 160.893676758 35.21127 0.0 4.467624e-07
865 160.893676758 33.09859 -0.6666667 4.1995665e-07
864 160.893676758 33.09859 0.0 4.1995665e-07
862 158.180221558 33.80282 0.0 4.2889192e-07
863 158.180221558 33.80282 -0.6666667 4.2889192e-07
870 158.180221558 30.985916 0.0 3.931509e-07
869 158.180221558 31.690142 -0.6666667 4.0208616e-07
358 158.180221558 12.676056 0.0 0.20000017
359 158.180221558 11.971831 2.0 0.20000015
366 158.180221558 10.56338 1.3333334 0.20000014
365 158.180221558 10.56338 2.0 0.20000014
863 152.422439575 33.80282 -0.6666667 4.2889192e-07
864 152.422439575 33.09859 0.0 4.1995665e-07
871 152.422439575 30.985916 -0.6666667 3.931509e-07
870 152.422439575 30.985916 0.0 3.931509e-07
359 152.422439575 11.971831 2.0 0.20000015
360 152.422439575 11.971831 1.3333334 0.20000015
367 152.422439575 10.56338 0.6666667 0.20000014
366 152.422439575 10.56338 1.3333334 0.20000014
1368 160.7628479 44.366196 -1.3333334 0.10000056
1369 160.7628479 44.366196 -2.0 0.10000056
1376 160.7628479 43.661972 -2.0 0.10000055
1375 160.7628479 43.661972 -1.3333334 0.10000055
864 160.7628479 33.09859 0.0 4.1995665e-07
865 160.7628479 33.09859 -0.6666667 4.1995665e-07
872 160.7628479 30.28169 0.0 3.8421567e-07
871 160.7628479 30.985916 -0.6666667 3.931509e-07
869 158.094619751 31.690142 -0.6666667 4.0208616e-07
870 158.094619751 30.985916 0.0 3.931509e-07
877 158.094619751 28.87324 -0.6666667 3.6634515e-07
876 158.094619751 28.87324 0.0 3.6634515e-07
365 158.094619751 10.56338 2.0 0.20000014
366 158.094619751 10.56338 1.3333334 0.20000014
373 158.094619751 9.154929 0.6666667 0.20000012
372 158.094619751 9.154929 1.3333334 0.20000012
566 153.497375488 21.12676 0.0 0.20000027
567 153.497375488 21.12676 -0.6666667 0.20000027
574 153.497375488 18.309858 0.0 0.20000024
573 153.497375488 19.014084 -0.6666667 0.20000024
62 153.497375488 3.5211267 -2.0 0.100000046
63 153.497375488 2.8169014 -1.3333334 0.10000004
70 153.497375488 0.70422536 -2.0 0.10000001
69 153.497375488 0.70422536 -1.3333334 0.10000001
1373 153.496307373 43.661972 0.0 0.10000055
1374 153.496307373 43.661972 -0.6666667 0.10000055
1381 153.496307373 46.478874 2.0 0.2000006
1380 153.496307373 47.183098 0.0 0.2000006
869 153.496307373 31.690142 -0.6666667 4.0208616e-07
870 153.496307373 30.985916 0.0 3.931509e-07
877 153.496307373 28.87324 -0.6666667 3.6634515e-07
876 153.496307373 28.87324 0.0 3.6634515e-07
579 160.663284302 16.90141 -0.6666667 0.20000021
580 160.663284302 16.197184 0.0 0.20000021
587 160.663284302 14.084507 -0.6666667 0.20000018
586 160.663284302 14.084507 0.0 0.20000018
75 160.663284302 11.267606 -1.3333334 0.20000015
76 160.663284302 11.267606 -2.0 0.20000015
83 160.663284302 8.450705 -1.3333334 0.2000001
82 160.663284302 9.154929 -2.0 0.20000012
877 160.663284302 28.87324 -0.6666667 3.6634515e-07
878 160.663284302 28.169014 0.0 3.574099e-07
885 160.663284302 26.056337 -0.6666667 3.3060417e-07
884 160.663284302 26.056337 0.0 3.3060417e-07
373 160.663284302 9.154929 0.6666667 0.20000012
374 160.663284302 8.450705 2.0 0.2000001
381 160.663284302 7.0422535 1.3333334 0.20000009
380 160.663284302 7.0422535 2.0 0.20000009
573 158.085189819 19.014084 -0.6666667 0.20000024
574 158.085189819 18.309858 0.0 0.20000024
581 158.085189819 16.197184 -0.6666667 0.20000021
580 158.085189819 16.197184 0.0 0.20000021
69 158.085189819 0.70422536 -1.3333334 0.10000001
70 158.085189819 0.70422536 -2.0 0.10000001
77 158.085189819 10.56338 -1.3333334 0.20000014
76 158.085189819 11.267606 -2.0 0.20000015
1076 155.034622192 31.690142 1.3333334 0.100000404
1077 155.034622192 31.690142 0.6666667 0.100000404
1084 155.034622192 35.915493 2.0 0.20000046
1083 155.034622192 36.619717 0.6666667 0.20000046
572 155.034622192 19.014084 0.0 0.20000024
573 155.034622192 19.014084 -0.6666667 0.20000024
580 155.034622192 16.197184 0.0 0.20000021
579 155.034622192 16.90141 -0.6666667 0.20000021
878 158.085250854 28.169014 0.0 3.574099e-07
879 158.085250854 28.169014 -0.6666667 3.574099e-07
886 158.085250854 25.352112 0.0 3.2166892e-07
885 158.085250854 26.056337 -0.6666667 3.3060417e-07
374 158.085250854 8.450705 2.0 0.2000001
375 158.085250854 8.450705 1.3333334 0.2000001
382 158.085250854 7.0422535 0.6666667 0.20000009
381 158.085250854 7.0422535 1.3333334 0.20000009
1374 155.035888672 43.661972 -0.6666667 0.10000055
1375 155.035888672 43.661972 -1.3333334 0.10000055
1382 155.035888672 46.478874 1.3333334 0.2000006
1381 155.035888672 46.478874 2.0 0.2000006
870 155.035888672 30.985916 0.0 3.931509e-07
871 155.035888672 30.985916 -0.6666667 3.931509e-07
878 155.035888672 28.169014 0.0 3.574099e-07
877 155.035888672 28.87324 -0.6666667 3.6634515e-07
576 160.590499878 17.605635 0.0 0.20000023
577 160.590499878 17.605635 -0.6666667 0.20000023
584 160.590499878 14.788733 0.0 0.2000002
583 160.590499878 15.492958 -0.6666667 0.2000002
72 160.590499878 -1.2688052e-09 -2.0 0.1
73 160.590499878 11.971831 -1.3333334 0.20000015
80 160.590499878 9.859155 -2.0 0.20000012
79 160.590499878 9.859155 -1.3333334 0.20000012
1381 162.203735352 46.478874 2.0 0.2000006
1382 162.203735352 46.478874 1.3333334 0.2000006
1389 162.203735352 45.774647 1.3333334 0.20000058
1388 162.203735352 45.774647 2.0 0.20000058
877 162.203735352 28.87324 -0.6666667 3.6634515e-07
878 162.203735352 28.169014 0.0 3.574099e-07
885 162.203735352 26.056337 -0.6666667 3.3060417e-07
884 162.203735352 26.056337 0.0 3.3060417e-07
879 160.590484619 28.169014 -0.6666667 3.574099e-07
880 160.590484619 27.464788 0.0 3.4847466e-07
887 160.590484619 25.352112 -0.6666667 3.2166892e-07
886 160.590484619 25.352112 0.0 3.2166892e-07
375 160.590484619 8.450705 1.3333334 0.2000001
376 160.590484619 8.450705 0.6666667 0.2000001
383 160.590484619 23.943663 -1.3333334 3.0379843e-07
382 160.590484619 7.0422535 0.6666667 0.20000009
1080 158.220001221 30.985916 0.6666667 0.1000004
1081 158.220001221 36.619717 2.0 0.20000046
1088 158.220001221 35.21127 1.3333334 0.20000045
1087 158.220001221 35.21127 2.0 0.20000045
576 158.220001221 17.605635 0.0 0.20000023
577 158.220001221 17.605635 -0.6666667 0.20000023
584 158.220001221 14.788733 0.0 0.2000002
583 158.220001221 15.492958 -0.6666667 0.2000002
1383 158.219955444 46.478874 0.6666667 0.2000006
1384 158.219955444 46.478874 0.0 0.2000006
1391 158.219955444 45.774647 0.0 0.20000058
1390 158.219955444 45.774647 0.6666667 0.20000058
879 158.219955444 28.169014 -0.6666667 3.574099e-07
880 158.219955444 27.464788 0.0 3.4847466e-07
887 158.219955444 25.352112 -0.6666667 3.2166892e-07
886 158.219955444 25.352112 0.0 3.2166892e-07
577 155.614517212 17.605635 -0.6666667 0.20000023
578 155.614517212 16.90141 0.0 0.20000021
585 155.614517212 14.788733 -0.6666667 0.2000002
584 155.614517212 14.788733 0.0 0.2000002
73 155.614517212 11.971831 -1.3333334 0.20000015
74 155.614517212 11.971831 -2.0 0.20000015
81 155.614517212 9.154929 -1.3333334 0.20000012
80 155.614517212 9.859155 -2.0 0.20000012
880 155.614395142 27.464788 0.0 3.4847466e-07
881 155.614395142 27.464788 -0.6666667 3.4847466e-07
888 155.614395142 24.647888 0.0 3.1273368e-07
887 155.614395142 25.352112 -0.6666667 3.2166892e-07
376 155.614395142 8.450705 0.6666667 0.2000001
377 155.614395142 7.746479 2.0 0.2000001
384 155.614395142 23.943663 -2.0 3.0379843e-07
383 155.614395142 23.943663 -1.3333334 3.0379843e-07
583 160.534912109 15.492958 -0.6666667 0.2000002
584 160.534912109 14.788733 0.0 0.2000002
591 160.534912109 18.309858 2.0 2.3231642e-07
590 160.534912109 12.676056 -0.6666667 0.20000017
79 160.534912109 9.859155 -1.3333334 0.20000012
80 160.534912109 9.859155 -2.0 0.20000012
87 160.534912109 7.0422535 -1.3333334 0.20000009
86 160.534912109 7.746479 -2.0 0.2000001
1376 161.985855103 43.661972 -2.0 0.10000055
1377 161.985855103 47.183098 2.0 0.2000006
1384 161.985855103 46.478874 0.0 0.2000006
1383 161.985855103 46.478874 0.6666667 0.2000006
872 161.985855103 30.28169 0.0 3.8421567e-07
873 161.985855103 30.28169 -0.6666667 3.8421567e-07
880 161.985855103 27.464788 0.0 3.4847466e-07
879 161.985855103 28.169014 -0.6666667 3.574099e-07
873 160.534912109 30.28169 -0.6666667 3.8421567e-07
874 160.534912109 29.577465 0.0 3.7528042e-07
881 160.534912109 27.464788 -0.6666667 3.4847466e-07
880 160.534912109 27.464788 0.0 3.4847466e-07
369 160.534912109 9.859155 1.3333334 0.20000012
370 160.534912109 9.859155 0.6666667 0.20000012
377 160.534912109 7.746479 2.0 0.2000001
376 160.534912109 8.450705 0.6666667 0.2000001
1087 158.448425293 35.21127 2.0 0.20000045
1088 158.448425293 35.21127 1.3333334 0.20000045
1095 158.448425293 33.80282 0.6666667 0.20000044
1094 158.448425293 33.80282 1.3333334 0.20000044
583 158.448425293 15.492958 -0.6666667 0.2000002
584 158.448425293 14.788733 0.0 0.2000002
591 158.448425293 18.309858 2.0 2.3231642e-07
590 158.448425293 12.676056 -0.6666667 0.20000017
1377 158.448471069 47.183098 2.0 0.2000006
1378 158.448471069 47.183098 1.3333334 0.2000006
1385 158.448471069 46.478874 -0.6666667 0.2000006
1384 158.448471069 46.478874 0.0 0.2000006
873 158.448471069 30.28169 -0.6666667 3.8421567e-07
874 158.448471069 29.577465 0.0 3.7528042e-07
881 158.448471069 27.464788 -0.6666667 3.4847466e-07
880 158.448471069 27.464788 0.0 3.4847466e-07
584 156.152664185 14.788733 0.0 0.2000002
585 156.152664185 14.788733 -0.6666667 0.2000002
592 156.152664185 18.309858 1.3333334 2.3231642e-07
591 156.152664185 18.309858 2.0 2.3231642e-07
80 156.152664185 9.859155 -2.0 0.20000012
81 156.152664185 9.154929 -1.3333334 0.20000012
88 156.152664185 7.0422535 -2.0 0.20000009
87 156.152664185 7.0422535 -1.3333334 0.20000009
865 156.15284729 33.09859 -0.6666667 4.1995665e-07
866 156.15284729 32.394367 0.0 4.110214e-07
873 156.15284729 30.28169 -0.6666667 3.8421567e-07
872 156.15284729 30.28169 0.0 3.8421567e-07
361 156.15284729 11.971831 0.6666667 0.20000015
362 156.15284729 11.267606 2.0 0.20000015
369 156.15284729 9.859155 1.3333334 0.20000012
368 156.15284729 9.859155 2.0 0.20000012
590 160.533279419 12.676056 -0.6666667 0.20000017
591 160.533279419 18.309858 2.0 2.3231642e-07
598 160.533279419 16.90141 1.3333334 2.1444595e-07
597 160.533279419 16.90141 2.0 2.1444595e-07
86 160.533279419 7.746479 -2.0 0.2000001
87 160.533279419 7.0422535 -1.3333334 0.20000009
94 160.533279419 4.9295774 -2.0 0.20000006
93 160.533279419 4.9295774 -1.3333334 0.20000006
1362 160.53326416 45.070423 -2.0 0.100000575
1363 160.53326416 44.366196 2.0 0.10000056
1370 160.53326416 43.661972 2.0 0.10000055
1369 160.53326416 44.366196 -2.0 0.10000056
858 160.53326416 35.21127 0.0 4.467624e-07
859 160.53326416 35.21127 -0.6666667 4.467624e-07
866 160.53326416 32.394367 0.0 4.110214e-07
865 160.53326416 33.09859 -0.6666667 4.1995665e-07
1094 158.686965942 33.80282 1.3333334 0.20000044
1095 158.686965942 33.80282 0.6666667 0.20000044
1102 158.686965942 32.394367 0.6666667 0.20000042
1101 158.686965942 32.394367 1.3333334 0.20000042
590 158.686965942 12.676056 -0.6666667 0.20000017
591 158.686965942 18.309858 2.0 2.3231642e-07
598 158.686965942 16.90141 1.3333334 2.1444595e-07
597 158.686965942 16.90141 2.0 2.1444595e-07
859 158.686920166 35.21127 -0.6666667 4.467624e-07
860 158.686920166 34.507042 0.0 4.3782714e-07
867 158.686920166 32.394367 -0.6666667 4.110214e-07
866 158.686920166 32.394367 0.0 4.110214e-07
355 158.686920166 7.0422535 1.3333334 0.10000009
356 158.686920166 7.0422535 0.6666667 0.10000009
363 158.686920166 11.267606 1.3333334 0.20000015
362 158.686920166 11.267606 2.0 0.20000015
591 156.598510742 18.309858 2.0 2.3231642e-07
592 156.598510742 18.309858 1.3333334 2.3231642e-07
599 156.598510742 16.90141 0.6666667 2.1444595e-07
598 156.598510742 16.90141 1.3333334 2.1444595e-07
87 156.598510742 7.0422535 -1.3333334 0.20000009
88 156.598510742 7.0422535 -2.0 0.20000009
95 156.598510742 4.2253523 -1.3333334 0.20000006
94 156.598510742 4.9295774 -2.0 0.20000006
1363 156.598373413 44.366196 2.0 0.10000056
1364 156.598373413 44.366196 1.3333334 0.10000056
1371 156.598373413 43.661972 1.3333334 0.10000055
1370 156.598373413 43.661972 2.0 0.10000055
859 156.598373413 35.21127 -0.6666667 4.467624e-07
860 156.598373413 34.507042 0.0 4.3782714e-07
867 156.598373413 32.394367 -0.6666667 4.110214e-07
866 156.598373413 32.394367 0.0 4.110214e-07
597 160.538726807 16.90141 2.0 2.1444595e-07
598 160.538726807 16.90141 1.3333334 2.1444595e-07
605 160.538726807 15.492958 0.6666667 1.9657546e-07
604 160.538726807 15.492958 1.3333334 1.9657546e-07
93 160.538726807 4.9295774 -1.3333334 0.20000006
94 160.538726807 4.9295774 -2.0 0.20000006
101 160.538726807 2.1126761 -1.3333334 0.20000003
100 160.538726807 2.8169014 -2.0 0.20000003
844 160.538726807 27.464788 -0.6666667 0.20000035
845 160.538726807 27.464788 -1.3333334 0.20000035
852 160.538726807 25.352112 -1.3333334 0.20000033
851 160.538726807 26.056337 -2.0 0.20000033
340 160.538726807 10.56338 1.3333334 0.100000136
341 160.538726807 10.56338 0.6666667 0.100000136
348 160.538726807 8.450705 2.0 0.100000106
347 160.538726807 9.154929 0.6666667 0.10000012
1101 158.894729614 32.394367 1.3333334 0.20000042
1102 158.894729614 32.394367 0.6666667 0.20000042
1109 158.894729614 42.957745 0.0 5.450501e-07
1108 158.894729614 30.985916 0.6666667 0.20000039
597 158.894729614 16.90141 2.0 2.1444595e-07
598 158.894729614 16.90141 1.3333334 2.1444595e-07
605 158.894729614 15.492958 0.6666667 1.9657546e-07
604 158.894729614 15.492958 1.3333334 1.9657546e-07
1348 158.894790649 46.478874 -2.0 0.10000059
1349 158.894790649 45.774647 2.0 0.10000058
1356 158.894790649 45.070423 2.0 0.100000575
1355 158.894790649 45.774647 -2.0 0.10000058
844 158.894790649 27.464788 -0.6666667 0.20000035
845 158.894790649 27.464788 -1.3333334 0.20000035
852 158.894790649 25.352112 -1.3333334 0.20000033
851 158.894790649 26.056337 -2.0 0.20000033
598 157.010864258 16.90141 1.3333334 2.1444595e-07
599 157.010864258 16.90141 0.6666667 2.1444595e-07
606 157.010864258 14.788733 2.0 1.876402e-07
605 157.010864258 15.492958 0.6666667 1.9657546e-07
94 157.010864258 4.9295774 -2.0 0.20000006
95 157.010864258 4.2253523 -1.3333334 0.20000006
102 157.010864258 2.1126761 -2.0 0.20000003
101 157.010864258 2.1126761 -1.3333334 0.20000003
845 157.010986328 27.464788 -1.3333334 0.20000035
846 157.010986328 27.464788 -2.0 0.20000035
853 157.010986328 25.352112 -2.0 0.20000033
852 157.010986328 25.352112 -1.3333334 0.20000033
341 157.010986328 10.56338 0.6666667 0.100000136
342 157.010986328 9.859155 2.0 0.10000013
349 157.010986328 8.450705 1.3333334 0.100000106
348 157.010986328 8.450705 2.0 0.100000106
604 160.55178833 15.492958 1.3333334 1.9657546e-07
605 160.55178833 15.492958 0.6666667 1.9657546e-07
612 160.55178833 14.084507 0.6666667 1.7870495e-07
611 160.55178833 14.084507 1.3333334 1.7870495e-07
100 160.55178833 2.8169014 -2.0 0.20000003
101 160.55178833 2.1126761 -1.3333334 0.20000003
108 160.55178833 -2.5376103e-09 -2.0 0.2
107 160.55178833 -2.5376103e-09 -1.3333334 0.2
838 160.551773071 29.577465 -1.3333334 0.20000038
839 160.551773071 29.577465 -2.0 0.20000038
846 160.551773071 27.464788 -2.0 0.20000035
845 160.551773071 27.464788 -1.3333334 0.20000035
334 160.551773071 11.971831 1.3333334 0.10000015
335 160.551773071 11.971831 0.6666667 0.10000015
342 160.551773071 9.859155 2.0 0.10000013
341 160.551773071 10.56338 0.6666667 0.100000136
1108 159.08921814 30.985916 0.6666667 0.20000039
1109 159.08921814 42.957745 0.0 5.450501e-07
1116 159.08921814 42.25352 -2.0 5.3611484e-07
1115 159.08921814 42.25352 -1.3333334 5.3611484e-07
604 159.08921814 15.492958 1.3333334 1.9657546e-07
605 159.08921814 15.492958 0.6666667 1.9657546e-07
612 159.08921814 14.084507 0.6666667 1.7870495e-07
611 159.08921814 14.084507 1.3333334 1.7870495e-07
1342 159.089172363 46.478874 2.0 0.10000059
1343 159.089172363 46.478874 1.3333334 0.10000059
1350 159.089172363 45.774647 1.3333334 0.10000058
1349 159.089172363 45.774647 2.0 0.10000058
838 159.089172363 29.577465 -1.3333334 0.20000038
839 159.089172363 29.577465 -2.0 0.20000038
846 159.089172363 27.464788 -2.0 0.20000035
845 159.089172363 27.464788 -1.3333334 0.20000035
605 157.374557495 15.492958 0.6666667 1.9657546e-07
606 157.374557495 14.788733 2.0 1.876402e-07
613 157.374557495 13.380281 2.0 1.697697e-07
612 157.374557495 14.084507 0.6666667 1.7870495e-07
101 157.374557495 2.1126761 -1.3333334 0.20000003
102 157.374557495 2.1126761 -2.0 0.20000003
109 157.374557495 11.971831 0.0 1.5189921e-07
108 157.374557495 -2.5376103e-09 -2.0 0.2
830 157.374450684 32.394367 -1.3333334 0.20000042
831 157.374450684 32.394367 -2.0 0.20000042
838 157.374450684 29.577465 -1.3333334 0.20000038
837 157.374450684 30.28169 -2.0 0.20000039
326 157.374450684 7.746479 0.6666667 9.828773e-08
327 157.374450684 7.0422535 2.0 8.9352476e-08
334 157.374450684 11.971831 1.3333334 0.10000015
333 157.374450684 11.971831 2.0 0.10000015
611 160.558990479 14.084507 1.3333334 1.7870495e-07
612 160.558990479 14.084507 0.6666667 1.7870495e-07
619 160.558990479 18.309858 2.0 0.10000023
618 160.558990479 12.676056 0.6666667 1.6083446e-07
107 160.558990479 -2.5376103e-09 -1.3333334 0.2
108 160.558990479 -2.5376103e-09 -2.0 0.2
115 160.558990479 9.859155 0.0 1.2509346e-07
114 160.558990479 10.56338 -0.6666667 1.3402871e-07
823 160.559005737 35.21127 -2.0 0.20000045
824 160.559005737 34.507042 -1.3333334 0.20000044
831 160.559005737 32.394367 -2.0 0.20000042
830 160.559005737 32.394367 -1.3333334 0.20000042
319 160.559005737 9.154929 1.3333334 1.1615821e-07
320 160.559005737 9.154929 0.6666667 1.1615821e-07
327 160.559005737 7.0422535 2.0 8.9352476e-08
326 160.559005737 7.746479 0.6666667 9.828773e-08
1115 159.253479004 42.25352 -1.3333334 5.3611484e-07
1116 159.253479004 42.25352 -2.0 5.3611484e-07
1123 159.253479004 40.84507 -1.3333334 5.1824435e-07
1122 159.253479004 40.84507 -0.6666667 5.1824435e-07
611 159.253479004 14.084507 1.3333334 1.7870495e-07
612 159.253479004 14.084507 0.6666667 1.7870495e-07
619 159.253479004 18.309858 2.0 0.10000023
618 159.253479004 12.676056 0.6666667 1.6083446e-07
1327 159.25352478 44.366196 0.0 5.629206e-07
1328 159.25352478 44.366196 -0.6666667 5.629206e-07
1335 159.25352478 43.661972 -0.6666667 5.539854e-07
1334 159.25352478 43.661972 0.0 5.539854e-07
823 159.25352478 35.21127 -2.0 0.20000045
824 159.25352478 34.507042 -1.3333334 0.20000044
831 159.25352478 32.394367 -2.0 0.20000042
830 159.25352478 32.394367 -1.3333334 0.20000042
612 157.692504883 14.084507 0.6666667 1.7870495e-07
613 157.692504883 13.380281 2.0 1.697697e-07
620 157.692504883 18.309858 1.3333334 0.10000023
619 157.692504883 18.309858 2.0 0.10000023
108 157.692504883 -2.5376103e-09 -2.0 0.2
109 157.692504883 11.971831 0.0 1.5189921e-07
116 157.692504883 9.859155 -0.6666667 1.2509346e-07
115 157.692504883 9.859155 0.0 1.2509346e-07
824 157.692596436 34.507042 -1.3333334 0.20000044
825 157.692596436 34.507042 -2.0 0.20000044
832 157.692596436 31.690142 -1.3333334 0.2000004
831 157.692596436 32.394367 -2.0 0.20000042
320 157.692596436 9.154929 0.6666667 1.1615821e-07
321 157.692596436 8.450705 2.0 1.0722298e-07
328 157.692596436 7.0422535 1.3333334 8.9352476e-08
327 157.692596436 7.0422535 2.0 8.9352476e-08
1112 160.598754883 42.957745 -2.0 5.450501e-07
1113 160.598754883 42.25352 0.0 5.3611484e-07
1120 160.598754883 41.549297 -2.0 5.271796e-07
1119 160.598754883 41.549297 -1.3333334 5.271796e-07
608 160.598754883 14.788733 0.6666667 1.876402e-07
609 160.598754883 14.788733 0.0 1.876402e-07
616 160.598754883 12.676056 2.0 1.6083446e-07
615 160.598754883 13.380281 0.6666667 1.697697e-07
1105 160.597351074 31.690142 0.6666667 0.2000004
1106 160.597351074 30.985916 2.0 0.20000039
1113 160.597351074 42.25352 0.0 5.3611484e-07
1112 160.597351074 42.957745 -2.0 5.450501e-07
601 160.597351074 16.197184 1.3333334 2.055107e-07
602 160.597351074 16.197184 0.6666667 2.055107e-07
609 160.597351074 14.788733 0.0 1.876402e-07
608 160.597351074 14.788733 0.6666667 1.876402e-07
1315 161.188232422 45.774647 -1.3333334 5.807911e-07
1316 161.188232422 45.774647 -2.0 5.807911e-07
1323 161.188232422 45.070423 -2.0 5.718559e-07
1322 161.188232422 45.070423 -1.3333334 5.718559e-07
811 161.188232422 26.760563 -0.6666667 0.100000344
812 161.188232422 26.760563 -1.3333334 0.100000344
819 161.188232422 36.619717 -2.0 0.20000046
818 161.188232422 36.619717 -1.3333334 0.20000046
818 160.597351074 36.619717 -1.3333334 0.20000046
819 160.597351074 36.619717 -2.0 0.20000046
826 160.597351074 33.80282 -1.3333334 0.20000044
825 160.597351074 34.507042 -2.0 0.20000044
314 160.597351074 10.56338 0.6666667 1.3402871e-07
315 160.597351074 9.859155 2.0 1.2509346e-07
322 160.597351074 8.450705 1.3333334 1.0722298e-07
321 160.597351074 8.450705 2.0 1.0722298e-07
613 159.927963257 13.380281 2.0 1.697697e-07
614 159.927963257 13.380281 1.3333334 1.697697e-07
621 159.927963257 18.309858 0.6666667 0.10000023
620 159.927963257 18.309858 1.3333334 0.10000023
109 159.927963257 11.971831 0.0 1.5189921e-07
110 159.927963257 11.971831 -0.6666667 1.5189921e-07
117 159.927963257 9.154929 0.0 1.1615821e-07
116 159.927963257 9.859155 -0.6666667 1.2509346e-07
606 159.910125732 14.788733 2.0 1.876402e-07
607 159.910125732 14.788733 1.3333334 1.876402e-07
614 159.910125732 13.380281 1.3333334 1.697697e-07
613 159.910125732 13.380281 2.0 1.697697e-07
102 159.910125732 2.1126761 -2.0 0.20000003
103 159.910125732 1.4084507 -1.3333334 0.20000002
110 159.910125732 11.971831 -0.6666667 1.5189921e-07
109 159.910125732 11.971831 0.0 1.5189921e-07
1322 159.910140991 45.070423 -1.3333334 5.718559e-07
1323 159.910140991 45.070423 -2.0 5.718559e-07
1330 159.910140991 44.366196 -2.0 5.629206e-07
1329 159.910140991 44.366196 -1.3333334 5.629206e-07
818 159.910140991 36.619717 -1.3333334 0.20000046
819 159.910140991 36.619717 -2.0 0.20000046
826 159.910140991 33.80282 -1.3333334 0.20000044
825 159.910140991 34.507042 -2.0 0.20000044
1098 160.596252441 33.09859 0.6666667 0.20000042
1099 160.596252441 33.09859 0.0 0.20000042
1106 160.596252441 30.985916 2.0 0.20000039
1105 160.596252441 31.690142 0.6666667 0.2000004
594 160.596252441 17.605635 2.0 2.233812e-07
595 160.596252441 17.605635 1.3333334 2.233812e-07
602 160.596252441 16.197184 0.6666667 2.055107e-07
601 160.596252441 16.197184 1.3333334 2.055107e-07
797 160.5962677 31.690142 -2.0 0.100000404
798 160.5962677 30.985916 -1.3333334 0.1000004
805 160.5962677 28.87324 -2.0 0.10000037
804 160.5962677 28.87324 -1.3333334 0.10000037
293 160.5962677 2.8169014 0.6666667 0.20000003
294 160.5962677 2.1126761 2.0 0.20000003
301 160.5962677 0.70422536 1.3333334 0.20000002
300 160.5962677 0.70422536 2.0 0.20000002
599 159.885192871 16.90141 0.6666667 2.1444595e-07
600 159.885192871 16.197184 2.0 2.055107e-07
607 159.885192871 14.788733 1.3333334 1.876402e-07
606 159.885192871 14.788733 2.0 1.876402e-07
95 159.885192871 4.2253523 -1.3333334 0.20000006
96 159.885192871 4.2253523 -2.0 0.20000006
103 159.885192871 1.4084507 -1.3333334 0.20000002
102 159.885192871 2.1126761 -2.0 0.20000003
1301 159.885162354 37.323944 1.3333334 0.20000048
1302 159.885162354 37.323944 0.6666667 0.20000048
1309 159.885162354 46.478874 -2.0 5.8972637e-07
1308 159.885162354 46.478874 -1.3333334 5.8972637e-07
797 159.885162354 31.690142 -2.0 0.100000404
798 159.885162354 30.985916 -1.3333334 0.1000004
805 159.885162354 28.87324 -2.0 0.10000037
804 159.885162354 28.87324 -1.3333334 0.10000037
1110 158.943618774 42.957745 -0.6666667 5.450501e-07
1111 158.943618774 42.957745 -1.3333334 5.450501e-07
1118 158.943618774 41.549297 -0.6666667 5.271796e-07
1117 158.943618774 41.549297 0.0 5.271796e-07
606 158.943618774 14.788733 2.0 1.876402e-07
607 158.943618774 14.788733 1.3333334 1.876402e-07
614 158.943618774 13.380281 1.3333334 1.697697e-07
613 158.943618774 13.380281 2.0 1.697697e-07
825 158.943603516 34.507042 -2.0 0.20000044
826 158.943603516 33.80282 -1.3333334 0.20000044
833 158.943603516 31.690142 -2.0 0.2000004
832 158.943603516 31.690142 -1.3333334 0.2000004
321 158.943603516 8.450705 2.0 1.0722298e-07
322 158.943603516 8.450705 1.3333334 1.0722298e-07
329 158.943603516 7.0422535 0.6666667 8.9352476e-08
328 158.943603516 7.0422535 1.3333334 8.9352476e-08
1103 158.895065308 31.690142 2.0 0.2000004
1104 158.895065308 31.690142 1.3333334 0.2000004
1111 158.895065308 42.957745 -1.3333334 5.450501e-07
1110 158.895065308 42.957745 -0.6666667 5.450501e-07
599 158.895065308 16.90141 0.6666667 2.1444595e-07
600 158.895065308 16.197184 2.0 2.055107e-07
607 158.895065308 14.788733 1.3333334 1.876402e-07
606 158.895065308 14.788733 2.0 1.876402e-07
804 158.895050049 28.87324 -1.3333334 0.10000037
805 158.895050049 28.87324 -2.0 0.10000037
812 158.895050049 26.760563 -1.3333334 0.100000344
811 158.895050049 26.760563 -0.6666667 0.100000344
300 158.895050049 0.70422536 2.0 0.20000002
301 158.895050049 0.70422536 1.3333334 0.20000002
308 158.895050049 11.971831 0.6666667 1.5189921e-07
307 158.895050049 11.971831 1.3333334 1.5189921e-07
1091 160.591964722 34.507042 1.3333334 0.20000044
1092 160.591964722 34.507042 0.6666667 0.20000044
1099 160.591964722 33.09859 0.0 0.20000042
1098 160.591964722 33.09859 0.6666667 0.20000042
587 160.591964722 14.084507 -0.6666667 0.20000018
588 160.591964722 13.380281 0.0 0.20000017
595 160.591964722 17.605635 1.3333334 2.233812e-07
594 160.591964722 17.605635 2.0 2.233812e-07
776 160.591964722 26.056337 -1.3333334 3.3060417e-07
777 160.591964722 26.056337 -2.0 3.3060417e-07
784 160.591964722 35.915493 -1.3333334 0.100000456
783 160.591964722 36.619717 -2.0 0.10000046
272 160.591964722 0.70422536 0.6666667 0.10000001
273 160.591964722 -1.2688052e-09 2.0 0.1
280 160.591964722 5.633803 1.3333334 0.20000008
279 160.591964722 5.633803 2.0 0.20000008
592 159.839691162 18.309858 1.3333334 2.3231642e-07
593 159.839691162 18.309858 0.6666667 2.3231642e-07
600 159.839691162 16.197184 2.0 2.055107e-07
599 159.839691162 16.90141 0.6666667 2.1444595e-07
88 159.839691162 7.0422535 -2.0 0.20000009
89 159.839691162 6.338028 -1.3333334 0.20000008
96 159.839691162 4.2253523 -2.0 0.20000006
95 159.839691162 4.2253523 -1.3333334 0.20000006
1280 159.83972168 42.25352 1.3333334 0.20000054
1281 159.83972168 42.25352 0.6666667 0.20000054
1288 159.83972168 40.140846 2.0 0.20000051
1287 159.83972168 40.84507 0.6666667 0.20000052
776 159.83972168 26.056337 -1.3333334 3.3060417e-07
777 159.83972168 26.056337 -2.0 3.3060417e-07
784 159.83972168 35.915493 -1.3333334 0.100000456
783 159.83972168 36.619717 -2.0 0.10000046
1096 158.811553955 33.09859 2.0 0.20000042
1097 158.811553955 33.09859 1.3333334 0.20000042
1104 158.811553955 31.690142 1.3333334 0.2000004
1103 158.811553955 31.690142 2.0 0.2000004
592 158.811553955 18.309858 1.3333334 2.3231642e-07
593 158.811553955 18.309858 0.6666667 2.3231642e-07
600 158.811553955 16.197184 2.0 2.055107e-07
599 158.811553955 16.90141 0.6666667 2.1444595e-07
783 158.81161499 36.619717 -2.0 0.10000046
784 158.81161499 35.915493 -1.3333334 0.100000456
791 158.81161499 33.80282 -2.0 0.100000426
790 158.81161499 33.80282 -1.3333334 0.100000426
279 158.81161499 5.633803 2.0 0.20000008
280 158.81161499 5.633803 1.3333334 0.20000008
287 158.81161499 4.2253523 0.6666667 0.20000006
286 158.81161499 4.2253523 1.3333334 0.20000006
1083 161.246383667 36.619717 0.6666667 0.20000046
1084 161.246383667 35.915493 2.0 0.20000046
1091 161.246383667 34.507042 1.3333334 0.20000044
1090 161.246383667 34.507042 2.0 0.20000044
579 161.246383667 16.90141 -0.6666667 0.20000021
580 161.246383667 16.197184 0.0 0.20000021
587 161.246383667 14.084507 -0.6666667 0.20000018
586 161.246383667 14.084507 0.0 0.20000018
1084 160.588104248 35.915493 2.0 0.20000046
1085 160.588104248 35.915493 1.3333334 0.20000046
1092 160.588104248 34.507042 0.6666667 0.20000044
1091 160.588104248 34.507042 1.3333334 0.20000044
580 160.588104248 16.197184 0.0 0.20000021
581 160.588104248 16.197184 -0.6666667 0.20000021
588 160.588104248 13.380281 0.0 0.20000017
587 160.588104248 14.084507 -0.6666667 0.20000018
1286 160.588088989 40.84507 1.3333334 0.20000052
1287 160.588088989 40.84507 0.6666667 0.20000052
1294 160.588088989 38.732395 2.0 0.2000005
1293 160.588088989 39.43662 0.6666667 0.20000051
782 160.588088989 36.619717 -1.3333334 0.10000046
783 160.588088989 36.619717 -2.0 0.10000046
790 160.588088989 33.80282 -1.3333334 0.100000426
789 160.588088989 34.507042 -2.0 0.10000044
585 159.786743164 14.788733 -0.6666667 0.2000002
586 159.786743164 14.084507 0.0 0.20000018
593 159.786743164 18.309858 0.6666667 2.3231642e-07
592 159.786743164 18.309858 1.3333334 2.3231642e-07
81 159.786743164 9.154929 -1.3333334 0.20000012
82 159.786743164 9.154929 -2.0 0.20000012
89 159.786743164 6.338028 -1.3333334 0.20000008
88 159.786743164 7.0422535 -2.0 0.20000009
1279 159.786727905 42.25352 2.0 0.20000054
1280 159.786727905 42.25352 1.3333334 0.20000054
1287 159.786727905 40.84507 0.6666667 0.20000052
1286 159.786727905 40.84507 1.3333334 0.20000052
775 159.786727905 26.760563 -2.0 3.395394e-07
776 159.786727905 26.056337 -1.3333334 3.3060417e-07
783 159.786727905 36.619717 -2.0 0.10000046
782 159.786727905 36.619717 -1.3333334 0.10000046
1089 158.711761475 35.21127 0.6666667 0.20000045
1090 158.711761475 34.507042 2.0 0.20000044
1097 158.711761475 33.09859 1.3333334 0.20000042
1096 158.711761475 33.09859 2.0 0.20000042
585 158.711761475 14.788733 -0.6666667 0.2000002
586 158.711761475 14.084507 0.0 0.20000018
593 158.711761475 18.309858 0.6666667 2.3231642e-07
592 158.711761475 18.309858 1.3333334 2.3231642e-07
1272 158.711700439 38.028168 0.6666667 0.100000486
1273 158.711700439 37.323944 2.0 0.10000047
1280 158.711700439 42.25352 1.3333334 0.20000054
1279 158.711700439 42.25352 2.0 0.20000054
768 158.711700439 28.87324 -1.3333334 3.6634515e-07
769 158.711700439 28.87324 -2.0 3.6634515e-07
776 158.711700439 26.056337 -1.3333334 3.3060417e-07
775 158.711700439 26.760563 -2.0 3.395394e-07
639 160.581680298 14.084507 0.6666667 0.10000018
640 160.581680298 13.380281 2.0 0.10000017
647 160.581680298 18.309858 0.6666667 0.20000024
646 160.581680298 18.309858 1.3333334 0.20000024
135 160.581680298 2.8169014 0.0 3.5740992e-08
136 160.581680298 2.8169014 -0.6666667 3.5740992e-08
143 160.581680298 0.0 0.0 0.0
142 160.581680298 0.70422536 -0.6666667 8.935248e-09
774 161.279373169 26.760563 -1.3333334 3.395394e-07
775 161.279373169 26.760563 -2.0 3.395394e-07
782 161.279373169 36.619717 -1.3333334 0.10000046
781 161.279373169 24.647888 -2.0 3.1273368e-07
270 161.279373169 0.70422536 2.0 0.10000001
271 161.279373169 0.70422536 1.3333334 0.10000001
278 161.279373169 6.338028 0.6666667 0.20000008
277 161.279373169 6.338028 1.3333334 0.20000008
1278 160.581665039 42.957745 0.6666667 0.20000055
1279 160.581665039 42.25352 2.0 0.20000054
1286 160.581665039 40.84507 1.3333334 0.20000052
1285 160.581665039 40.84507 2.0 0.20000052
774 160.581665039 26.760563 -1.3333334 3.395394e-07
775 160.581665039 26.760563 -2.0 3.395394e-07
782 160.581665039 36.619717 -1.3333334 0.10000046
781 160.581665039 24.647888 -2.0 3.1273368e-07
640 159.711380005 13.380281 2.0 0.10000017
641 159.711380005 13.380281 1.3333334 0.10000017
648 159.711380005 17.605635 2.0 0.20000023
647 159.711380005 18.309858 0.6666667 0.20000024
136 159.711380005 2.8169014 -0.6666667 3.5740992e-08
137 159.711380005 2.1126761 0.0 2.6805743e-08
144 159.711380005 0.0 -0.6666667 0.0
143 159.711380005 0.0 0.0 0.0
1271 159.711410522 38.028168 1.3333334 0.100000486
1272 159.711410522 38.028168 0.6666667 0.100000486
1279 159.711410522 42.25352 2.0 0.20000054
1278 159.711410522 42.957745 0.6666667 0.20000055
767 159.711410522 29.577465 -2.0 3.7528042e-07
768 159.711410522 28.87324 -1.3333334 3.6634515e-07
775 159.711410522 26.760563 -2.0 3.395394e-07
774 159.711410522 26.760563 -1.3333334 3.395394e-07
1082 158.572555542 36.619717 1.3333334 0.20000046
1083 158.572555542 36.619717 0.6666667 0.20000046
1090 158.572555542 34.507042 2.0 0.20000044
1089 158.572555542 35.21127 0.6666667 0.20000045
578 158.572555542 16.90141 0.0 0.20000021
579 158.572555542 16.90141 -0.6666667 0.20000021
586 158.572555542 14.084507 0.0 0.20000018
585 158.572555542 14.788733 -0.6666667 0.2000002
1264 158.572631836 39.43662 2.0 0.1000005
1265 158.572631836 39.43662 1.3333334 0.1000005
1272 158.572631836 38.028168 0.6666667 0.100000486
1271 158.572631836 38.028168 1.3333334 0.100000486
760 158.572631836 31.690142 -1.3333334 4.0208616e-07
761 158.572631836 31.690142 -2.0 4.0208616e-07
768 158.572631836 28.87324 -1.3333334 3.6634515e-07
767 158.572631836 29.577465 -2.0 3.7528042e-07
638 160.578201294 14.084507 1.3333334 0.10000018
639 160.578201294 14.084507 0.6666667 0.10000018
646 160.578201294 18.309858 1.3333334 0.20000024
645 160.578201294 18.309858 2.0 0.20000024
134 160.578201294 3.5211267 -0.6666667 4.4676238e-08
135 160.578201294 2.8169014 0.0 3.5740992e-08
142 160.578201294 0.70422536 -0.6666667 8.935248e-09
141 160.578201294 0.70422536 0.0 8.935248e-09
788 160.578201294 34.507042 -1.3333334 0.10000044
789 160.578201294 34.507042 -2.0 0.10000044
796 160.578201294 31.690142 -1.3333334 0.100000404
795 160.578201294 32.394367 -2.0 0.10000041
284 160.578201294 4.9295774 0.6666667 0.20000006
285 160.578201294 4.2253523 2.0 0.20000006
292 160.578201294 2.8169014 1.3333334 0.20000003
291 160.578201294 2.8169014 2.0 0.20000003
632 159.630661011 15.492958 1.3333334 0.100000195
633 159.630661011 15.492958 0.6666667 0.100000195
640 159.630661011 13.380281 2.0 0.10000017
639 159.630661011 14.084507 0.6666667 0.10000018
128 159.630661011 5.633803 -0.6666667 7.1481985e-08
129 159.630661011 4.9295774 0.0 6.254673e-08
136 159.630661011 2.8169014 -0.6666667 3.5740992e-08
135 159.630661011 2.8169014 0.0 3.5740992e-08
789 159.630630493 34.507042 -2.0 0.10000044
790 159.630630493 33.80282 -1.3333334 0.100000426
797 159.630630493 31.690142 -2.0 0.100000404
796 159.630630493 31.690142 -1.3333334 0.100000404
285 159.630630493 4.2253523 2.0 0.20000006
286 159.630630493 4.2253523 1.3333334 0.20000006
293 159.630630493 2.8169014 0.6666667 0.20000003
292 159.630630493 2.8169014 1.3333334 0.20000003
1136 158.415008545 38.732395 -2.0 4.9143864e-07
1137 158.415008545 38.028168 0.0 4.8250337e-07
1144 158.415008545 37.323944 -2.0 4.7356812e-07
1143 158.415008545 37.323944 -1.3333334 4.7356812e-07
632 158.415008545 15.492958 1.3333334 0.100000195
633 158.415008545 15.492958 0.6666667 0.100000195
640 158.415008545 13.380281 2.0 0.10000017
639 158.415008545 14.084507 0.6666667 0.10000018
1293 158.414916992 39.43662 0.6666667 0.20000051
1294 158.414916992 38.732395 2.0 0.2000005
1301 158.414916992 37.323944 1.3333334 0.20000048
1300 158.414916992 37.323944 2.0 0.20000048
789 158.414916992 34.507042 -2.0 0.10000044
790 158.414916992 33.80282 -1.3333334 0.100000426
797 158.414916992 31.690142 -2.0 0.100000404
796 158.414916992 31.690142 -1.3333334 0.100000404
625 160.572402954 16.90141 2.0 0.10000022
626 160.572402954 16.90141 1.3333334 0.10000022
633 160.572402954 15.492958 0.6666667 0.100000195
632 160.572402954 15.492958 1.3333334 0.100000195
121 160.572402954 7.746479 0.0 9.828773e-08
122 160.572402954 7.746479 -0.6666667 9.828773e-08
129 160.572402954 4.9295774 0.0 6.254673e-08
128 160.572402954 5.633803 -0.6666667 7.1481985e-08
1306 160.572402954 46.478874 0.0 5.8972637e-07
1307 160.572402954 46.478874 -0.6666667 5.8972637e-07
1314 160.572402954 45.774647 -0.6666667 5.807911e-07
1313 160.572402954 45.774647 0.0 5.807911e-07
802 160.572402954 29.577465 -1.3333334 0.100000374
803 160.572402954 29.577465 -2.0 0.100000374
810 160.572402954 27.464788 -2.0 0.10000035
809 160.572402954 27.464788 -1.3333334 0.10000035
1129 159.523590088 39.43662 0.0 5.0037386e-07
1130 159.523590088 39.43662 -0.6666667 5.0037386e-07
1137 159.523590088 38.028168 0.0 4.8250337e-07
1136 159.523590088 38.732395 -2.0 4.9143864e-07
625 159.523590088 16.90141 2.0 0.10000022
626 159.523590088 16.90141 1.3333334 0.10000022
633 159.523590088 15.492958 0.6666667 0.100000195
632 159.523590088 15.492958 1.3333334 0.100000195
803 159.523620605 29.577465 -2.0 0.100000374
804 159.523620605 28.87324 -1.3333334 0.10000037
811 159.523620605 26.760563 -0.6666667 0.100000344
810 159.523620605 27.464788 -2.0 0.10000035
299 159.523620605 1.4084507 0.6666667 0.20000002
300 159.523620605 0.70422536 2.0 0.20000002
307 159.523620605 11.971831 1.3333334 1.5189921e-07
306 159.523620605 11.971831 2.0 1.5189921e-07
626 158.20954895 16.90141 1.3333334 0.10000022
627 158.20954895 16.90141 0.6666667 0.10000022
634 158.20954895 14.788733 2.0 0.10000019
633 158.20954895 15.492958 0.6666667 0.100000195
122 158.20954895 7.746479 -0.6666667 9.828773e-08
123 158.20954895 7.0422535 0.0 8.9352476e-08
130 158.20954895 4.9295774 -0.6666667 6.254673e-08
129 158.20954895 4.9295774 0.0 6.254673e-08
1307 158.209625244 46.478874 -0.6666667 5.8972637e-07
1308 158.209625244 46.478874 -1.3333334 5.8972637e-07
1315 158.209625244 45.774647 -1.3333334 5.807911e-07
1314 158.209625244 45.774647 -0.6666667 5.807911e-07
803 158.209625244 29.577465 -2.0 0.100000374
804 158.209625244 28.87324 -1.3333334 0.10000037
811 158.209625244 26.760563 -0.6666667 0.100000344
810 158.209625244 27.464788 -2.0 0.10000035
1121 161.439910889 40.84507 0.0 5.1824435e-07
1122 161.439910889 40.84507 -0.6666667 5.1824435e-07
1129 161.439910889 39.43662 0.0 5.0037386e-07
1128 161.439910889 40.140846 -2.0 5.0930913e-07
617 161.439910889 12.676056 1.3333334 1.6083446e-07
618 161.439910889 12.676056 0.6666667 1.6083446e-07
625 161.439910889 16.90141 2.0 0.10000022
624 161.439910889 17.605635 0.6666667 0.100000225
618 160.568954468 12.676056 0.6666667 1.6083446e-07
619 160.568954468 18.309858 2.0 0.10000023
626 160.568954468 16.90141 1.3333334 0.10000022
625 160.568954468 16.90141 2.0 0.10000022
114 160.568954468 10.56338 -0.6666667 1.3402871e-07
115 160.568954468 9.859155 0.0 1.2509346e-07
122 160.568954468 7.746479 -0.6666667 9.828773e-08
121 160.568954468 7.746479 0.0 9.828773e-08
1321 160.568954468 45.070423 -0.6666667 5.718559e-07
1322 160.568954468 45.070423 -1.3333334 5.718559e-07
1329 160.568954468 44.366196 -1.3333334 5.629206e-07
1328 160.568954468 44.366196 -0.6666667 5.629206e-07
817 160.568954468 25.352112 -2.0 0.10000032
818 160.568954468 36.619717 -1.3333334 0.20000046
825 160.568954468 34.507042 -2.0 0.20000044
824 160.568954468 34.507042 -1.3333334 0.20000044
1122 159.405105591 40.84507 -0.6666667 5.1824435e-07
1123 159.405105591 40.84507 -1.3333334 5.1824435e-07
1130 159.405105591 39.43662 -0.6666667 5.0037386e-07
1129 159.405105591 39.43662 0.0 5.0037386e-07
618 159.405105591 12.676056 0.6666667 1.6083446e-07
619 159.405105591 18.309858 2.0 0.10000023
626 159.405105591 16.90141 1.3333334 0.10000022
625 159.405105591 16.90141 2.0 0.10000022
809 159.405059814 27.464788 -1.3333334 0.10000035
810 159.405059814 27.464788 -2.0 0.10000035
817 159.405059814 25.352112 -2.0 0.10000032
816 159.405059814 25.352112 -1.3333334 0.10000032
305 159.405059814 -2.5376103e-09 0.6666667 0.2
306 159.405059814 11.971831 2.0 1.5189921e-07
313 159.405059814 10.56338 1.3333334 1.3402871e-07
312 159.405059814 10.56338 2.0 1.3402871e-07
619 157.97718811 18.309858 2.0 0.10000023
620 157.97718811 18.309858 1.3333334 0.10000023
627 157.97718811 16.90141 0.6666667 0.10000022
626 157.97718811 16.90141 1.3333334 0.10000022
115 157.97718811 9.859155 0.0 1.2509346e-07
116 157.97718811 9.859155 -0.6666667 1.2509346e-07
123 157.97718811 7.0422535 0.0 8.9352476e-08
122 157.97718811 7.746479 -0.6666667 9.828773e-08
1313 157.977111816 45.774647 0.0 5.807911e-07
1314 157.977111816 45.774647 -0.6666667 5.807911e-07
1321 157.977111816 45.070423 -0.6666667 5.718559e-07
1320 157.977111816 45.070423 0.0 5.718559e-07
809 157.977111816 27.464788 -1.3333334 0.10000035
810 157.977111816 27.464788 -2.0 0.10000035
817 157.977111816 25.352112 -2.0 0.10000032
816 157.977111816 25.352112 -1.3333334 0.10000032
614 162.351638794 13.380281 1.3333334 1.697697e-07
615 162.351638794 13.380281 0.6666667 1.697697e-07
622 162.351638794 17.605635 2.0 0.100000225
621 162.351638794 18.309858 0.6666667 0.10000023
110 162.351638794 11.971831 -0.6666667 1.5189921e-07
111 162.351638794 11.267606 0.0 1.4296397e-07
118 162.351638794 9.154929 -0.6666667 1.1615821e-07
117 162.351638794 9.154929 0.0 1.1615821e-07
1329 162.353042603 44.366196 -1.3333334 5.629206e-07
1330 162.353042603 44.366196 -2.0 5.629206e-07
1337 162.353042603 43.661972 -2.0 5.539854e-07
1336 162.353042603 43.661972 -1.3333334 5.539854e-07
825 162.353042603 34.507042 -2.0 0.20000044
826 162.353042603 33.80282 -1.3333334 0.20000044
833 162.353042603 31.690142 -2.0 0.2000004
832 162.353042603 31.690142 -1.3333334 0.2000004
1350 162.351638794 45.774647 1.3333334 0.10000058
1351 162.351638794 45.774647 0.6666667 0.10000058
1358 162.351638794 45.070423 0.6666667 0.100000575
1357 162.351638794 45.070423 1.3333334 0.100000575
846 162.351638794 27.464788 -2.0 0.20000035
847 162.351638794 26.760563 -0.6666667 0.20000035
854 162.351638794 36.619717 0.0 4.6463285e-07
853 162.351638794 25.352112 -2.0 0.20000033
621 162.371078491 18.309858 0.6666667 0.10000023
622 162.371078491 17.605635 2.0 0.100000225
629 162.371078491 16.197184 1.3333334 0.10000021
628 162.371078491 16.197184 2.0 0.10000021
117 162.371078491 9.154929 0.0 1.1615821e-07
118 162.371078491 9.154929 -0.6666667 1.1615821e-07
125 162.371078491 6.338028 0.0 8.041723e-08
124 162.371078491 7.0422535 -0.6666667 8.9352476e-08
1371 162.371078491 43.661972 1.3333334 0.10000055
1372 162.371078491 43.661972 0.6666667 0.10000055
1379 162.371078491 47.183098 0.6666667 0.2000006
1378 162.371078491 47.183098 1.3333334 0.2000006
867 162.371078491 32.394367 -0.6666667 4.110214e-07
868 162.371078491 31.690142 0.0 4.0208616e-07
875 162.371078491 29.577465 -0.6666667 3.7528042e-07
874 162.371078491 29.577465 0.0 3.7528042e-07
628 162.41293335 16.197184 2.0 0.10000021
629 162.41293335 16.197184 1.3333334 0.10000021
636 162.41293335 14.788733 0.6666667 0.10000019
635 162.41293335 14.788733 1.3333334 0.10000019
124 162.41293335 7.0422535 -0.6666667 8.9352476e-08
125 162.41293335 6.338028 0.0 8.041723e-08
132 162.41293335 4.2253523 -0.6666667 5.361149e-08
131 162.41293335 4.2253523 0.0 5.361149e-08
941 162.41293335 29.577465 0.0 0.20000038
942 162.41293335 29.577465 -0.6666667 0.20000038
949 162.41293335 26.056337 0.0 0.20000033
948 162.41293335 26.760563 0.0 0.20000035
437 162.41293335 17.605635 -1.3333334 0.100000225
438 162.41293335 17.605635 -2.0 0.100000225
445 162.41293335 14.788733 -1.3333334 0.10000019
444 162.41293335 15.492958 -2.0 0.100000195
636 161.845550537 14.788733 0.6666667 0.10000019
637 161.845550537 14.084507 2.0 0.10000018
644 161.845550537 12.676056 1.3333334 0.100000165
643 161.845550537 12.676056 2.0 0.100000165
132 161.845550537 4.2253523 -0.6666667 5.361149e-08
133 161.845550537 3.5211267 0.0 4.4676238e-08
140 161.845550537 1.4084507 -0.6666667 1.7870496e-08
139 161.845550537 1.4084507 0.0 1.7870496e-08
1139 162.475036621 38.028168 -1.3333334 4.8250337e-07
1140 162.475036621 38.028168 -2.0 4.8250337e-07
1147 162.475036621 42.957745 0.0 0.100000545
1146 162.475036621 36.619717 -2.0 4.6463285e-07
635 162.475036621 14.788733 1.3333334 0.10000019
636 162.475036621 14.788733 0.6666667 0.10000019
643 162.475036621 12.676056 2.0 0.100000165
642 162.475036621 13.380281 0.6666667 0.10000017
1438 162.475036621 47.887325 1.3333334 6.0759686e-07
1439 162.475036621 47.887325 0.6666667 6.0759686e-07
1446 162.475036621 47.183098 0.6666667 5.986616e-07
1445 162.475036621 47.183098 1.3333334 5.986616e-07
934 162.475036621 32.394367 -0.6666667 0.20000042
935 162.475036621 31.690142 0.0 0.2000004
942 162.475036621 29.577465 -0.6666667 0.20000038
941 162.475036621 29.577465 0.0 0.20000038
1198 162.560043335 40.84507 -2.0 0.20000052
1199 162.560043335 40.140846 0.0 0.20000051
1206 162.560043335 39.43662 -2.0 0.20000051
1205 162.560043335 39.43662 -1.3333334 0.20000051
694 162.560043335 19.014084 1.3333334 2.4125168e-07
695 162.560043335 19.014084 0.6666667 2.4125168e-07
702 162.560043335 23.239437 1.3333334 0.1000003
701 162.560043335 23.239437 2.0 0.1000003
1431 162.560043335 48.59155 1.3333334 6.165321e-07
1432 162.560043335 48.59155 0.6666667 6.165321e-07
1439 162.560043335 47.887325 0.6666667 6.0759686e-07
1438 162.560043335 47.887325 1.3333334 6.0759686e-07
927 162.560043335 35.21127 -0.6666667 0.20000045
928 162.560043335 34.507042 0.0 0.20000044
935 162.560043335 31.690142 0.0 0.2000004
934 162.560043335 32.394367 -0.6666667 0.20000042
687 162.6690979 20.422535 2.0 2.5912217e-07
688 162.6690979 20.422535 1.3333334 2.5912217e-07
695 162.6690979 19.014084 0.6666667 2.4125168e-07
694 162.6690979 19.014084 1.3333334 2.4125168e-07
183 162.6690979 11.267606 0.0 0.20000015
184 162.6690979 11.267606 -0.6666667 0.20000015
191 162.6690979 8.450705 0.0 0.2000001
190 162.6690979 9.154929 -0.6666667 0.20000012
1424 162.6690979 49.295776 1.3333334 6.2546735e-07
1425 162.6690979 49.295776 0.6666667 6.2546735e-07
1432 162.6690979 48.59155 0.6666667 6.165321e-07
1431 162.6690979 48.59155 1.3333334 6.165321e-07
920 162.6690979 25.352112 0.0 0.10000032
921 162.6690979 25.352112 -0.6666667 0.10000032
928 162.6690979 34.507042 0.0 0.20000044
927 162.6690979 35.21127 -0.6666667 0.20000045
680 162.804244995 22.535212 0.6666667 2.8592794e-07
681 162.804244995 21.830986 2.0 2.769927e-07
688 162.804244995 20.422535 1.3333334 2.5912217e-07
687 162.804244995 20.422535 2.0 2.5912217e-07
176 162.804244995 1.4084507 -0.6666667 0.10000002
177 162.804244995 0.70422536 0.0 0.10000001
184 162.804244995 11.267606 -0.6666667 0.20000015
183 162.804244995 11.267606 0.0 0.20000015
1417 162.804229736 50.0 1.3333334 6.3440257e-07
1418 162.804229736 50.0 0.6666667 6.3440257e-07
1425 162.804229736 49.295776 0.6666667 6.2546735e-07
1424 162.804229736 49.295776 1.3333334 6.2546735e-07
913 162.804229736 28.87324 -0.6666667 0.10000037
914 162.804229736 28.169014 0.0 0.10000036
921 162.804229736 25.352112 -0.6666667 0.10000032
920 162.804229736 25.352112 0.0 0.10000032
673 162.966751099 23.943663 0.6666667 3.0379843e-07
674 162.966751099 23.943663 0.0 3.0379843e-07
681 162.966751099 21.830986 2.0 2.769927e-07
680 162.966751099 22.535212 0.6666667 2.8592794e-07
169 162.966751099 3.5211267 0.0 0.100000046
170 162.966751099 3.5211267 -0.6666667 0.100000046
177 162.966751099 0.70422536 0.0 0.10000001
176 162.966751099 1.4084507 -0.6666667 0.10000002
1410 162.966751099 43.661972 1.3333334 0.20000055
1411 162.966751099 43.661972 0.6666667 0.20000055
1418 162.966751099 50.0 0.6666667 6.3440257e-07
1417 162.966751099 50.0 1.3333334 6.3440257e-07
906 162.966751099 30.985916 0.0 0.1000004
907 162.966751099 30.985916 -0.6666667 0.1000004
914 162.966751099 28.169014 0.0 0.10000036
913 162.966751099 28.87324 -0.6666667 0.10000037
1180 163.145935059 37.323944 -0.6666667 0.10000047
1181 163.145935059 37.323944 -1.3333334 0.10000047
1188 163.145935059 42.25352 -0.6666667 0.20000054
1187 163.145935059 42.25352 0.0 0.20000054
676 163.145935059 23.239437 1.3333334 2.9486318e-07
677 163.145935059 23.239437 0.6666667 2.9486318e-07
684 163.145935059 21.12676 2.0 2.6805742e-07
683 163.145935059 21.830986 0.6666667 2.769927e-07
883 163.145950317 26.760563 -0.6666667 3.395394e-07
884 163.145950317 26.056337 0.0 3.3060417e-07
891 163.145950317 36.619717 -0.6666667 0.10000046
890 163.145950317 36.619717 0.0 0.10000046
379 163.145950317 7.746479 0.6666667 0.2000001
380 163.145950317 7.0422535 2.0 0.20000009
387 163.145950317 22.535212 -1.3333334 2.8592794e-07
386 163.145950317 23.239437 -2.0 2.9486318e-07
1172 163.335525513 38.732395 -0.6666667 0.10000049
1173 163.335525513 38.732395 -1.3333334 0.10000049
1180 163.335525513 37.323944 -0.6666667 0.10000047
1179 163.335525513 37.323944 0.0 0.10000047
668 163.335525513 13.380281 0.6666667 0.20000017
669 163.335525513 12.676056 2.0 0.20000017
676 163.335525513 23.239437 1.3333334 2.9486318e-07
675 163.335525513 23.239437 2.0 2.9486318e-07
1403 163.335525513 44.366196 1.3333334 0.20000057
1404 163.335525513 44.366196 0.6666667 0.20000057
1411 163.335525513 43.661972 0.6666667 0.20000055
1410 163.335525513 43.661972 1.3333334 0.20000055
899 163.335525513 33.80282 -0.6666667 0.100000426
900 163.335525513 33.09859 0.0 0.10000042
907 163.335525513 30.985916 -0.6666667 0.1000004
906 163.335525513 30.985916 0.0 0.1000004
661 163.555908203 14.788733 1.3333334 0.2000002
662 163.555908203 14.788733 0.6666667 0.2000002
669 163.555908203 12.676056 2.0 0.20000017
668 163.555908203 13.380281 0.6666667 0.20000017
157 163.555908203 7.746479 0.0 0.1000001
158 163.555908203 7.746479 -0.6666667 0.1000001
165 163.555908203 4.9295774 0.0 0.10000006
164 163.555908203 5.633803 -0.6666667 0.100000076
885 163.555908203 26.056337 -0.6666667 3.3060417e-07
886 163.555908203 25.352112 0.0 3.2166892e-07
893 163.555908203 35.915493 -0.6666667 0.100000456
892 163.555908203 35.915493 0.0 0.100000456
381 163.555908203 7.0422535 1.3333334 0.20000009
382 163.555908203 7.0422535 0.6666667 0.20000009
389 163.555908203 21.830986 -1.3333334 2.769927e-07
388 163.555908203 22.535212 -2.0 2.8592794e-07
1142 163.817962646 37.323944 -0.6666667 4.7356812e-07
1143 163.817962646 37.323944 -1.3333334 4.7356812e-07
1150 163.817962646 42.957745 -2.0 0.100000545
1149 163.817962646 42.957745 -1.3333334 0.100000545
638 163.817962646 14.084507 1.3333334 0.10000018
639 163.817962646 14.084507 0.6666667 0.10000018
646 163.817962646 18.309858 1.3333334 0.20000024
645 163.817962646 18.309858 2.0 0.20000024
1499 163.817993164 48.59155 0.0 0.20000061
1500 163.817993164 48.59155 -0.6666667 0.20000061
1507 163.817993164 47.887325 -0.6666667 0.20000061
1506 163.817993164 47.887325 0.0 0.20000061
995 163.817993164 26.760563 2.0 0.100000344
996 163.817993164 26.760563 1.3333334 0.100000344
1003 163.817993164 25.352112 0.6666667 0.10000032
1002 163.817993164 25.352112 1.3333334 0.10000032
1150 164.13671875 42.957745 -2.0 0.100000545
1151 164.13671875 42.25352 0.0 0.10000054
1158 164.13671875 41.549297 -2.0 0.10000053
1157 164.13671875 41.549297 -1.3333334 0.10000053
646 164.13671875 18.309858 1.3333334 0.20000024
647 164.13671875 18.309858 0.6666667 0.20000024
654 164.13671875 16.197184 2.0 0.20000021
653 164.13671875 16.90141 0.6666667 0.20000021
1492 164.136703491 49.295776 0.0 0.20000063
1493 164.136703491 49.295776 -0.6666667 0.20000063
1500 164.136703491 48.59155 -0.6666667 0.20000061
1499 164.136703491 48.59155 0.0 0.20000061
988 164.136703491 28.87324 0.6666667 0.10000037
989 164.136703491 28.169014 2.0 0.10000036
996 164.136703491 26.760563 1.3333334 0.100000344
995 164.136703491 26.760563 2.0 0.100000344
1205 164.512390137 39.43662 -1.3333334 0.20000051
1206 164.512390137 39.43662 -2.0 0.20000051
1213 164.512390137 38.028168 -1.3333334 0.20000048
1212 164.512390137 38.028168 -0.6666667 0.20000048
701 164.512390137 23.239437 2.0 0.1000003
702 164.512390137 23.239437 1.3333334 0.1000003
709 164.512390137 21.830986 0.6666667 0.10000028
708 164.512390137 21.830986 1.3333334 0.10000028
1485 164.512374878 50.0 2.220446e-16 0.20000064
1486 164.512374878 50.0 -0.6666667 0.20000064
1493 164.512374878 49.295776 -0.6666667 0.20000063
1492 164.512374878 49.295776 0.0 0.20000063
981 164.512374878 30.28169 1.3333334 0.10000039
982 164.512374878 30.28169 0.6666667 0.10000039
989 164.512374878 28.169014 2.0 0.10000036
988 164.512374878 28.87324 0.6666667 0.10000037
708 164.919815063 21.830986 1.3333334 0.10000028
709 164.919815063 21.830986 0.6666667 0.10000028
716 164.919815063 19.71831 2.0 0.100000255
715 164.919815063 20.422535 0.6666667 0.10000026
204 164.919815063 4.2253523 -0.6666667 0.20000006
205 164.919815063 3.5211267 0.0 0.20000005
212 164.919815063 1.4084507 -0.6666667 0.20000002
211 164.919815063 1.4084507 0.0 0.20000002
1478 164.919815063 47.887325 -2.0 0.100000605
1479 164.919815063 47.183098 -0.6666667 0.1000006
1486 164.919815063 50.0 -0.6666667 0.20000064
1485 164.919815063 50.0 2.220446e-16 0.20000064
974 164.919815063 25.352112 2.0 3.2166892e-07
975 164.919815063 25.352112 1.3333334 3.2166892e-07
982 164.919815063 30.28169 0.6666667 0.10000039
981 164.919815063 30.28169 1.3333334 0.10000039
715 165.346160889 20.422535 0.6666667 0.10000026
716 165.346160889 19.71831 2.0 0.100000255
723 165.346160889 24.647888 0.6666667 0.20000032
722 165.346160889 24.647888 1.3333334 0.20000032
211 165.346160889 1.4084507 0.0 0.20000002
212 165.346160889 1.4084507 -0.6666667 0.20000002
219 165.346160889 5.633803 2.0 7.1481985e-08
218 165.346160889 6.338028 1.3333334 8.041723e-08
1471 165.346176147 48.59155 -2.0 0.10000062
1472 165.346176147 47.887325 2.0 0.100000605
1479 165.346176147 47.183098 -0.6666667 0.1000006
1478 165.346176147 47.887325 -2.0 0.100000605
967 165.346176147 27.464788 0.6666667 3.4847466e-07
968 165.346176147 26.760563 2.0 3.395394e-07
975 165.346176147 25.352112 1.3333334 3.2166892e-07
974 165.346176147 25.352112 2.0 3.2166892e-07
722 165.751663208 24.647888 1.3333334 0.20000032
723 165.751663208 24.647888 0.6666667 0.20000032
730 165.751663208 22.535212 2.0 0.20000029
729 165.751663208 23.239437 0.6666667 0.2000003
218 165.751663208 6.338028 1.3333334 8.041723e-08
219 165.751663208 5.633803 2.0 7.1481985e-08
226 165.751663208 4.2253523 1.3333334 5.361149e-08
225 165.751663208 4.2253523 2.0 5.361149e-08
608 161.765304565 14.788733 0.6666667 1.876402e-07
609 161.765304565 14.788733 0.0 1.876402e-07
616 161.765304565 12.676056 2.0 1.6083446e-07
615 161.765304565 13.380281 0.6666667 1.697697e-07
104 161.765304565 1.4084507 -2.0 0.20000002
105 161.765304565 0.70422536 -1.3333334 0.20000002
112 161.765304565 11.267606 -0.6666667 1.4296397e-07
111 161.765304565 11.267606 0.0 1.4296397e-07
615 161.764282227 13.380281 0.6666667 1.697697e-07
616 161.764282227 12.676056 2.0 1.6083446e-07
623 161.764282227 17.605635 1.3333334 0.100000225
622 161.764282227 17.605635 2.0 0.100000225
111 161.764282227 11.267606 0.0 1.4296397e-07
112 161.764282227 11.267606 -0.6666667 1.4296397e-07
119 161.764282227 8.450705 0.0 1.0722298e-07
118 161.764282227 9.154929 -0.6666667 1.1615821e-07
1118 161.18057251 41.549297 -0.6666667 5.271796e-07
1119 161.18057251 41.549297 -1.3333334 5.271796e-07
1126 161.18057251 40.140846 -0.6666667 5.0930913e-07
1125 161.18057251 40.140846 0.0 5.0930913e-07
614 161.18057251 13.380281 1.3333334 1.697697e-07
615 161.18057251 13.380281 0.6666667 1.697697e-07
622 161.18057251 17.605635 2.0 0.100000225
621 161.18057251 18.309858 0.6666667 0.10000023
832 161.765304565 31.690142 -1.3333334 0.2000004
833 161.765304565 31.690142 -2.0 0.2000004
840 161.765304565 28.87324 -1.3333334 0.20000038
839 161.765304565 29.577465 -2.0 0.20000038
328 161.765304565 7.0422535 1.3333334 8.9352476e-08
329 161.765304565 7.0422535 0.6666667 8.9352476e-08
336 161.765304565 11.267606 2.0 0.10000014
335 161.765304565 11.971831 0.6666667 0.10000015
1336 161.180923462 43.661972 -1.3333334 5.539854e-07
1337 161.180923462 43.661972 -2.0 5.539854e-07
1344 161.180923462 46.478874 0.6666667 0.10000059
1343 161.180923462 46.478874 1.3333334 0.10000059
832 161.180923462 31.690142 -1.3333334 0.2000004
833 161.180923462 31.690142 -2.0 0.2000004
840 161.180923462 28.87324 -1.3333334 0.20000038
839 161.180923462 29.577465 -2.0 0.20000038
853 161.764282227 25.352112 -2.0 0.20000033
854 161.764282227 36.619717 0.0 4.6463285e-07
861 161.764282227 34.507042 -0.6666667 4.3782714e-07
860 161.764282227 34.507042 0.0 4.3782714e-07
349 161.764282227 8.450705 1.3333334 0.100000106
350 161.764282227 8.450705 0.6666667 0.100000106
357 161.764282227 12.676056 0.6666667 0.20000017
356 161.764282227 7.0422535 0.6666667 0.10000009
1357 161.180587769 45.070423 1.3333334 0.100000575
1358 161.180587769 45.070423 0.6666667 0.100000575
1365 161.180587769 44.366196 0.6666667 0.10000056
1364 161.180587769 44.366196 1.3333334 0.10000056
853 161.180587769 25.352112 -2.0 0.20000033
854 161.180587769 36.619717 0.0 4.6463285e-07
861 161.180587769 34.507042 -0.6666667 4.3782714e-07
860 161.180587769 34.507042 0.0 4.3782714e-07
622 161.777435303 17.605635 2.0 0.100000225
623 161.777435303 17.605635 1.3333334 0.100000225
630 161.777435303 16.197184 0.6666667 0.10000021
629 161.777435303 16.197184 1.3333334 0.10000021
118 161.777435303 9.154929 -0.6666667 1.1615821e-07
119 161.777435303 8.450705 0.0 1.0722298e-07
126 161.777435303 6.338028 -0.6666667 8.041723e-08
125 161.777435303 6.338028 0.0 8.041723e-08
874 161.777435303 29.577465 0.0 3.7528042e-07
875 161.777435303 29.577465 -0.6666667 3.7528042e-07
882 161.777435303 26.760563 0.0 3.395394e-07
881 161.777435303 27.464788 -0.6666667 3.4847466e-07
370 161.777435303 9.859155 0.6666667 0.20000012
371 161.777435303 9.154929 2.0 0.20000012
378 161.777435303 7.746479 1.3333334 0.2000001
377 161.777435303 7.746479 2.0 0.2000001
1125 161.187149048 40.140846 0.0 5.0930913e-07
1126 161.187149048 40.140846 -0.6666667 5.0930913e-07
1133 161.187149048 38.732395 0.0 4.9143864e-07
1132 161.187149048 39.43662 -2.0 5.0037386e-07
621 161.187149048 18.309858 0.6666667 0.10000023
622 161.187149048 17.605635 2.0 0.100000225
629 161.187149048 16.197184 1.3333334 0.10000021
628 161.187149048 16.197184 2.0 0.10000021
1378 161.187149048 47.183098 1.3333334 0.2000006
1379 161.187149048 47.183098 0.6666667 0.2000006
1386 161.187149048 46.478874 -1.3333334 0.2000006
1385 161.187149048 46.478874 -0.6666667 0.2000006
874 161.187149048 29.577465 0.0 3.7528042e-07
875 161.187149048 29.577465 -0.6666667 3.7528042e-07
882 161.187149048 26.760563 0.0 3.395394e-07
881 161.187149048 27.464788 -0.6666667 3.4847466e-07
629 161.805282593 16.197184 1.3333334 0.10000021
630 161.805282593 16.197184 0.6666667 0.10000021
637 161.805282593 14.084507 2.0 0.10000018
636 161.805282593 14.788733 0.6666667 0.10000019
125 161.805282593 6.338028 0.0 8.041723e-08
126 161.805282593 6.338028 -0.6666667 8.041723e-08
133 161.805282593 3.5211267 0.0 4.4676238e-08
132 161.805282593 4.2253523 -0.6666667 5.361149e-08
932 161.805282593 33.09859 -0.6666667 0.20000042
933 161.805282593 32.394367 0.0 0.20000042
940 161.805282593 30.28169 -0.6666667 0.20000039
939 161.805282593 30.28169 0.0 0.20000039
428 161.805282593 21.12676 -2.0 0.10000027
429 161.805282593 20.422535 -1.3333334 0.10000026
436 161.805282593 18.309858 -2.0 0.10000023
435 161.805282593 18.309858 -1.3333334 0.10000023
1132 161.200393677 39.43662 -2.0 5.0037386e-07
1133 161.200393677 38.732395 0.0 4.9143864e-07
1140 161.200393677 38.028168 -2.0 4.8250337e-07
1139 161.200393677 38.028168 -1.3333334 4.8250337e-07
628 161.200393677 16.197184 2.0 0.10000021
629 161.200393677 16.197184 1.3333334 0.10000021
636 161.200393677 14.788733 0.6666667 0.10000019
635 161.200393677 14.788733 1.3333334 0.10000019
1140 161.218887329 38.028168 -2.0 4.8250337e-07
1141 161.218887329 37.323944 0.0 4.7356812e-07
1148 161.218887329 42.957745 -0.6666667 0.100000545
1147 161.218887329 42.957745 0.0 0.100000545
636 161.218887329 14.788733 0.6666667 0.10000019
637 161.218887329 14.084507 2.0 0.10000018
644 161.218887329 12.676056 1.3333334 0.100000165
643 161.218887329 12.676056 2.0 0.100000165
925 161.845535278 35.915493 -0.6666667 0.20000046
926 161.845535278 35.21127 0.0 0.20000045
933 161.845535278 32.394367 0.0 0.20000042
932 161.845535278 33.09859 -0.6666667 0.20000042
421 161.845535278 23.239437 -1.3333334 0.1000003
422 161.845535278 23.239437 -2.0 0.1000003
429 161.845535278 20.422535 -1.3333334 0.10000026
428 161.845535278 21.12676 -2.0 0.10000027
1429 161.218902588 49.295776 -2.0 6.2546735e-07
1430 161.218902588 48.59155 2.0 6.165321e-07
1437 161.218902588 47.887325 2.0 6.0759686e-07
1436 161.218902588 48.59155 -2.0 6.165321e-07
925 161.218902588 35.915493 -0.6666667 0.20000046
926 161.218902588 35.21127 0.0 0.20000045
933 161.218902588 32.394367 0.0 0.20000042
932 161.218902588 33.09859 -0.6666667 0.20000042
695 161.899810791 19.014084 0.6666667 2.4125168e-07
696 161.899810791 24.647888 1.3333334 0.100000314
703 161.899810791 23.239437 0.6666667 0.1000003
702 161.899810791 23.239437 1.3333334 0.1000003
191 161.899810791 8.450705 0.0 0.2000001
192 161.899810791 8.450705 -0.6666667 0.2000001
199 161.899810791 5.633803 0.0 0.20000008
198 161.899810791 6.338028 -0.6666667 0.20000008
1199 161.243362427 40.140846 0.0 0.20000051
1200 161.243362427 40.140846 -0.6666667 0.20000051
1207 161.243362427 38.732395 0.0 0.2000005
1206 161.243362427 39.43662 -2.0 0.20000051
695 161.243362427 19.014084 0.6666667 2.4125168e-07
696 161.243362427 24.647888 1.3333334 0.100000314
703 161.243362427 23.239437 0.6666667 0.1000003
702 161.243362427 23.239437 1.3333334 0.1000003
918 161.899810791 26.056337 0.0 0.10000033
919 161.899810791 26.056337 -0.6666667 0.10000033
926 161.899810791 35.21127 0.0 0.20000045
925 161.899810791 35.915493 -0.6666667 0.20000046
414 161.899810791 13.380281 -2.0 1.697697e-07
415 161.899810791 12.676056 -1.3333334 1.6083446e-07
422 161.899810791 23.239437 -2.0 0.1000003
421 161.899810791 23.239437 -1.3333334 0.1000003
1422 161.243347168 50.0 -2.0 6.3440257e-07
1423 161.243347168 49.295776 2.0 6.2546735e-07
1430 161.243347168 48.59155 2.0 6.165321e-07
1429 161.243347168 49.295776 -2.0 6.2546735e-07
918 161.243347168 26.056337 0.0 0.10000033
919 161.243347168 26.056337 -0.6666667 0.10000033
926 161.243347168 35.21127 0.0 0.20000045
925 161.243347168 35.915493 -0.6666667 0.20000046
1191 161.969573975 41.549297 0.0 0.20000052
1192 161.969573975 41.549297 -0.6666667 0.20000052
1199 161.969573975 40.140846 0.0 0.20000051
1198 161.969573975 40.84507 -2.0 0.20000052
687 161.969573975 20.422535 2.0 2.5912217e-07
688 161.969573975 20.422535 1.3333334 2.5912217e-07
695 161.969573975 19.014084 0.6666667 2.4125168e-07
694 161.969573975 19.014084 1.3333334 2.4125168e-07
911 161.969589233 29.577465 -0.6666667 0.100000374
912 161.969589233 28.87324 0.0 0.10000037
919 161.969589233 26.056337 -0.6666667 0.10000033
918 161.969589233 26.056337 0.0 0.10000033
407 161.969589233 15.492958 -1.3333334 1.9657546e-07
408 161.969589233 15.492958 -2.0 1.9657546e-07
415 161.969589233 12.676056 -1.3333334 1.6083446e-07
414 161.969589233 13.380281 -2.0 1.697697e-07
688 161.274673462 20.422535 1.3333334 2.5912217e-07
689 161.274673462 20.422535 0.6666667 2.5912217e-07
696 161.274673462 24.647888 1.3333334 0.100000314
695 161.274673462 19.014084 0.6666667 2.4125168e-07
184 161.274673462 11.267606 -0.6666667 0.20000015
185 161.274673462 10.56338 0.0 0.20000014
192 161.274673462 8.450705 -0.6666667 0.2000001
191 161.274673462 8.450705 0.0 0.2000001
1415 161.274673462 43.661972 -2.0 0.20000055
1416 161.274673462 50.0 2.0 6.3440257e-07
1423 161.274673462 49.295776 2.0 6.2546735e-07
1422 161.274673462 50.0 -2.0 6.3440257e-07
911 161.274673462 29.577465 -0.6666667 0.100000374
912 161.274673462 28.87324 0.0 0.10000037
919 161.274673462 26.056337 -0.6666667 0.10000033
918 161.274673462 26.056337 0.0 0.10000033
1184 162.057434082 42.957745 -0.6666667 0.20000055
1185 162.057434082 42.957745 -1.3333334 0.20000055
1192 162.057434082 41.549297 -0.6666667 0.20000052
1191 162.057434082 41.549297 0.0 0.20000052
680 162.057434082 22.535212 0.6666667 2.8592794e-07
681 162.057434082 21.830986 2.0 2.769927e-07
688 162.057434082 20.422535 1.3333334 2.5912217e-07
687 162.057434082 20.422535 2.0 2.5912217e-07
904 162.057449341 31.690142 0.0 0.100000404
905 162.057449341 31.690142 -0.6666667 0.100000404
912 162.057449341 28.87324 0.0 0.10000037
911 162.057449341 29.577465 -0.6666667 0.100000374
400 162.057449341 18.309858 -2.0 2.3231642e-07
401 162.057449341 17.605635 -1.3333334 2.233812e-07
408 162.057449341 15.492958 -2.0 1.9657546e-07
407 162.057449341 15.492958 -1.3333334 1.9657546e-07
681 161.315948486 21.830986 2.0 2.769927e-07
682 161.315948486 21.830986 1.3333334 2.769927e-07
689 161.315948486 20.422535 0.6666667 2.5912217e-07
688 161.315948486 20.422535 1.3333334 2.5912217e-07
177 161.315948486 0.70422536 0.0 0.10000001
178 161.315948486 0.70422536 -0.6666667 0.10000001
185 161.315948486 10.56338 0.0 0.20000014
184 161.315948486 11.267606 -0.6666667 0.20000015
1408 161.315963745 44.366196 -2.0 0.20000057
1409 161.315963745 43.661972 2.0 0.20000055
1416 161.315963745 50.0 2.0 6.3440257e-07
1415 161.315963745 43.661972 -2.0 0.20000055
904 161.315963745 31.690142 0.0 0.100000404
905 161.315963745 31.690142 -0.6666667 0.100000404
912 161.315963745 28.87324 0.0 0.10000037
911 161.315963745 29.577465 -0.6666667 0.100000374
1177 162.164108276 38.028168 -1.3333334 0.100000486
1178 162.164108276 38.028168 -2.0 0.100000486
1185 162.164108276 42.957745 -1.3333334 0.20000055
1184 162.164108276 42.957745 -0.6666667 0.20000055
673 162.164108276 23.943663 0.6666667 3.0379843e-07
674 162.164108276 23.943663 0.0 3.0379843e-07
681 162.164108276 21.830986 2.0 2.769927e-07
680 162.164108276 22.535212 0.6666667 2.8592794e-07
1411 162.164108276 43.661972 0.6666667 0.20000055
1412 162.164108276 43.661972 0.0 0.20000055
1419 162.164108276 50.0 -5.551115e-17 6.3440257e-07
1418 162.164108276 50.0 0.6666667 6.3440257e-07
907 162.164108276 30.985916 -0.6666667 0.1000004
908 162.164108276 30.28169 0.0 0.10000039
915 162.164108276 28.169014 -0.6666667 0.10000036
914 162.164108276 28.169014 0.0 0.10000036
897 161.367538452 34.507042 -0.6666667 0.10000044
898 161.367538452 33.80282 0.0 0.100000426
905 161.367538452 31.690142 -0.6666667 0.100000404
904 161.367538452 31.690142 0.0 0.100000404
393 161.367538452 20.422535 -1.3333334 2.5912217e-07
394 161.367538452 20.422535 -2.0 2.5912217e-07
401 161.367538452 17.605635 -1.3333334 2.233812e-07
400 161.367538452 18.309858 -2.0 2.3231642e-07
666 162.294692993 13.380281 2.0 0.20000017
667 162.294692993 13.380281 1.3333334 0.20000017
674 162.294692993 23.943663 0.0 3.0379843e-07
673 162.294692993 23.943663 0.6666667 3.0379843e-07
162 162.294692993 6.338028 -0.6666667 0.10000008
163 162.294692993 5.633803 0.0 0.100000076
170 162.294692993 3.5211267 -0.6666667 0.100000046
169 162.294692993 3.5211267 0.0 0.100000046
1387 162.294692993 46.478874 -2.0 0.2000006
1388 162.294692993 45.774647 2.0 0.20000058
1395 162.294692993 45.070423 2.0 0.20000057
1394 162.294692993 45.774647 -2.0 0.20000058
883 162.294692993 26.760563 -0.6666667 3.395394e-07
884 162.294692993 26.056337 0.0 3.3060417e-07
891 162.294692993 36.619717 -0.6666667 0.10000046
890 162.294692993 36.619717 0.0 0.10000046
1170 161.430999756 39.43662 -2.0 0.1000005
1171 161.430999756 38.732395 0.0 0.10000049
1178 161.430999756 38.028168 -2.0 0.100000486
1177 161.430999756 38.028168 -1.3333334 0.100000486
666 161.430999756 13.380281 2.0 0.20000017
667 161.430999756 13.380281 1.3333334 0.20000017
674 161.430999756 23.943663 0.0 3.0379843e-07
673 161.430999756 23.943663 0.6666667 3.0379843e-07
1173 162.449630737 38.732395 -1.3333334 0.10000049
1174 162.449630737 38.732395 -2.0 0.10000049
1181 162.449630737 37.323944 -1.3333334 0.10000047
1180 162.449630737 37.323944 -0.6666667 0.10000047
669 162.449630737 12.676056 2.0 0.20000017
670 162.449630737 12.676056 1.3333334 0.20000017
677 162.449630737 23.239437 0.6666667 2.9486318e-07
676 162.449630737 23.239437 1.3333334 2.9486318e-07
891 162.449630737 36.619717 -0.6666667 0.10000046
892 162.449630737 35.915493 0.0 0.100000456
899 162.449630737 33.80282 -0.6666667 0.100000426
898 162.449630737 33.80282 0.0 0.100000426
387 162.449630737 22.535212 -1.3333334 2.8592794e-07
388 162.449630737 22.535212 -2.0 2.8592794e-07
395 162.449630737 19.71831 -1.3333334 2.5018693e-07
394 162.449630737 20.422535 -2.0 2.5912217e-07
659 161.504699707 15.492958 0.6666667 0.2000002
660 161.504699707 14.788733 2.0 0.2000002
667 161.504699707 13.380281 1.3333334 0.20000017
666 161.504699707 13.380281 2.0 0.20000017
155 161.504699707 8.450705 0.0 0.100000106
156 161.504699707 8.450705 -0.6666667 0.100000106
163 161.504699707 5.633803 0.0 0.100000076
162 161.504699707 6.338028 -0.6666667 0.10000008
1395 161.504699707 45.070423 2.0 0.20000057
1396 161.504699707 45.070423 1.3333334 0.20000057
1403 161.504699707 44.366196 1.3333334 0.20000057
1402 161.504699707 44.366196 2.0 0.20000057
891 161.504699707 36.619717 -0.6666667 0.10000046
892 161.504699707 35.915493 0.0 0.100000456
899 161.504699707 33.80282 -0.6666667 0.100000426
898 161.504699707 33.80282 0.0 0.100000426
1165 162.628036499 40.140846 -1.3333334 0.10000051
1166 162.628036499 40.140846 -2.0 0.10000051
1173 162.628036499 38.732395 -1.3333334 0.10000049
1172 162.628036499 38.732395 -0.6666667 0.10000049
661 162.628036499 14.788733 1.3333334 0.2000002
662 162.628036499 14.788733 0.6666667 0.2000002
669 162.628036499 12.676056 2.0 0.20000017
668 162.628036499 13.380281 0.6666667 0.20000017
1396 162.628051758 45.070423 1.3333334 0.20000057
1397 162.628051758 45.070423 0.6666667 0.20000057
1404 162.628051758 44.366196 0.6666667 0.20000057
1403 162.628051758 44.366196 1.3333334 0.20000057
892 162.628051758 35.915493 0.0 0.100000456
893 162.628051758 35.915493 -0.6666667 0.100000456
900 162.628051758 33.09859 0.0 0.10000042
899 162.628051758 33.80282 -0.6666667 0.100000426
652 161.589141846 16.90141 1.3333334 0.20000021
653 161.589141846 16.90141 0.6666667 0.20000021
660 161.589141846 14.788733 2.0 0.2000002
659 161.589141846 15.492958 0.6666667 0.2000002
148 161.589141846 11.267606 -0.6666667 0.10000014
149 161.589141846 10.56338 0.0 0.100000136
156 161.589141846 8.450705 -0.6666667 0.100000106
155 161.589141846 8.450705 0.0 0.100000106
1397 161.589126587 45.070423 0.6666667 0.20000057
1398 161.589126587 45.070423 0.0 0.20000057
1405 161.589126587 44.366196 0.0 0.20000057
1404 161.589126587 44.366196 0.6666667 0.20000057
893 161.589126587 35.915493 -0.6666667 0.100000456
894 161.589126587 35.21127 0.0 0.10000045
901 161.589126587 33.09859 -0.6666667 0.10000042
900 161.589126587 33.09859 0.0 0.10000042
653 162.832199097 16.90141 0.6666667 0.20000021
654 162.832199097 16.197184 2.0 0.20000021
661 162.832199097 14.788733 1.3333334 0.2000002
660 162.832199097 14.788733 2.0 0.2000002
149 162.832199097 10.56338 0.0 0.100000136
150 162.832199097 10.56338 -0.6666667 0.100000136
157 162.832199097 7.746479 0.0 0.1000001
156 162.832199097 8.450705 -0.6666667 0.100000106
996 162.832214355 26.760563 1.3333334 0.100000344
997 162.832214355 26.760563 0.6666667 0.100000344
1004 162.832214355 24.647888 2.0 0.100000314
1003 162.832214355 25.352112 0.6666667 0.10000032
492 162.832214355 22.535212 0.0 2.8592794e-07
493 162.832214355 22.535212 -0.6666667 2.8592794e-07
500 162.832214355 19.71831 0.0 2.5018693e-07
499 162.832214355 20.422535 -0.6666667 2.5912217e-07
1500 161.682388306 48.59155 -0.6666667 0.20000061
1501 161.682388306 48.59155 -1.3333334 0.20000061
1508 161.682388306 47.887325 -1.3333334 0.20000061
1507 161.682388306 47.887325 -0.6666667 0.20000061
996 161.682388306 26.760563 1.3333334 0.100000344
997 161.682388306 26.760563 0.6666667 0.100000344
1004 161.682388306 24.647888 2.0 0.100000314
1003 161.682388306 25.352112 0.6666667 0.10000032
1143 163.079406738 37.323944 -1.3333334 4.7356812e-07
1144 163.079406738 37.323944 -2.0 4.7356812e-07
1151 163.079406738 42.25352 0.0 0.10000054
1150 163.079406738 42.957745 -2.0 0.100000545
639 163.079406738 14.084507 0.6666667 0.10000018
640 163.079406738 13.380281 2.0 0.10000017
647 163.079406738 18.309858 0.6666667 0.20000024
646 163.079406738 18.309858 1.3333334 0.20000024
989 163.079406738 28.169014 2.0 0.10000036
990 163.079406738 28.169014 1.3333334 0.10000036
997 163.079406738 26.760563 0.6666667 0.100000344
996 163.079406738 26.760563 1.3333334 0.100000344
485 163.079406738 13.380281 -1.3333334 0.20000017
486 163.079406738 13.380281 -2.0 0.20000017
493 163.079406738 22.535212 -0.6666667 2.8592794e-07
492 163.079406738 22.535212 0.0 2.8592794e-07
1493 161.793945312 49.295776 -0.6666667 0.20000063
1494 161.793945312 49.295776 -1.3333334 0.20000063
1501 161.793945312 48.59155 -1.3333334 0.20000061
1500 161.793945312 48.59155 -0.6666667 0.20000061
989 161.793945312 28.169014 2.0 0.10000036
990 161.793945312 28.169014 1.3333334 0.10000036
997 161.793945312 26.760563 0.6666667 0.100000344
996 161.793945312 26.760563 1.3333334 0.100000344
702 163.335891724 23.239437 1.3333334 0.1000003
703 163.335891724 23.239437 0.6666667 0.1000003
710 163.335891724 21.12676 2.0 0.10000027
709 163.335891724 21.830986 0.6666667 0.10000028
198 163.335891724 6.338028 -0.6666667 0.20000008
199 163.335891724 5.633803 0.0 0.20000008
206 163.335891724 3.5211267 -0.6666667 0.20000005
205 163.335891724 3.5211267 0.0 0.20000005
982 163.335876465 30.28169 0.6666667 0.10000039
983 163.335876465 29.577465 2.0 0.100000374
990 163.335876465 28.169014 1.3333334 0.10000036
989 163.335876465 28.169014 2.0 0.10000036
478 163.335876465 16.197184 -2.0 0.20000021
479 163.335876465 15.492958 -1.3333334 0.2000002
486 163.335876465 13.380281 -2.0 0.20000017
485 163.335876465 13.380281 -1.3333334 0.20000017
1206 161.951599121 39.43662 -2.0 0.20000051
1207 161.951599121 38.732395 0.0 0.2000005
1214 161.951599121 38.028168 -2.0 0.20000048
1213 161.951599121 38.028168 -1.3333334 0.20000048
702 161.951599121 23.239437 1.3333334 0.1000003
703 161.951599121 23.239437 0.6666667 0.1000003
710 161.951599121 21.12676 2.0 0.10000027
709 161.951599121 21.830986 0.6666667 0.10000028
1486 161.951583862 50.0 -0.6666667 0.20000064
1487 161.951583862 50.0 -1.3333334 0.20000064
1494 161.951583862 49.295776 -1.3333334 0.20000063
1493 161.951583862 49.295776 -0.6666667 0.20000063
982 161.951583862 30.28169 0.6666667 0.10000039
983 161.951583862 29.577465 2.0 0.100000374
990 161.951583862 28.169014 1.3333334 0.10000036
989 161.951583862 28.169014 2.0 0.10000036
1212 163.62979126 38.028168 -0.6666667 0.20000048
1213 163.62979126 38.028168 -1.3333334 0.20000048
1220 163.62979126 42.957745 1.3333334 5.450501e-07
1219 163.62979126 42.957745 2.0 5.450501e-07
708 163.62979126 21.830986 1.3333334 0.10000028
709 163.62979126 21.830986 0.6666667 0.10000028
716 163.62979126 19.71831 2.0 0.100000255
715 163.62979126 20.422535 0.6666667 0.10000026
975 163.629806519 25.352112 1.3333334 3.2166892e-07
976 163.629806519 25.352112 0.6666667 3.2166892e-07
983 163.629806519 29.577465 2.0 0.100000374
982 163.629806519 30.28169 0.6666667 0.10000039
471 163.629806519 18.309858 -1.3333334 0.20000024
472 163.629806519 18.309858 -2.0 0.20000024
479 163.629806519 15.492958 -1.3333334 0.2000002
478 163.629806519 16.197184 -2.0 0.20000021
709 162.165664673 21.830986 0.6666667 0.10000028
710 162.165664673 21.12676 2.0 0.10000027
717 162.165664673 19.71831 1.3333334 0.100000255
716 162.165664673 19.71831 2.0 0.100000255
205 162.165664673 3.5211267 0.0 0.20000005
206 162.165664673 3.5211267 -0.6666667 0.20000005
213 162.165664673 0.70422536 0.0 0.20000002
212 162.165664673 1.4084507 -0.6666667 0.20000002
1479 162.165679932 47.183098 -0.6666667 0.1000006
1480 162.165679932 47.183098 -1.3333334 0.1000006
1487 162.165679932 50.0 -1.3333334 0.20000064
1486 162.165679932 50.0 -0.6666667 0.20000064
975 162.165679932 25.352112 1.3333334 3.2166892e-07
976 162.165679932 25.352112 0.6666667 3.2166892e-07
983 162.165679932 29.577465 2.0 0.100000374
982 162.165679932 30.28169 0.6666667 0.10000039
1219 163.943008423 42.957745 2.0 5.450501e-07
1220 163.943008423 42.957745 1.3333334 5.450501e-07
1227 163.943008423 41.549297 0.6666667 5.271796e-07
1226 163.943008423 41.549297 1.3333334 5.271796e-07
715 163.943008423 20.422535 0.6666667 0.10000026
716 163.943008423 19.71831 2.0 0.100000255
723 163.943008423 24.647888 0.6666667 0.20000032
722 163.943008423 24.647888 1.3333334 0.20000032
968 163.943023682 26.760563 2.0 3.395394e-07
969 163.943023682 26.760563 1.3333334 3.395394e-07
976 163.943023682 25.352112 0.6666667 3.2166892e-07
975 163.943023682 25.352112 1.3333334 3.2166892e-07
464 163.943023682 21.12676 -2.0 0.20000027
465 163.943023682 20.422535 -1.3333334 0.20000026
472 163.943023682 18.309858 -2.0 0.20000024
471 163.943023682 18.309858 -1.3333334 0.20000024
716 162.410354614 19.71831 2.0 0.100000255
717 162.410354614 19.71831 1.3333334 0.100000255
724 162.410354614 23.943663 2.0 0.2000003
723 162.410354614 24.647888 0.6666667 0.20000032
212 162.410354614 1.4084507 -0.6666667 0.20000002
213 162.410354614 0.70422536 0.0 0.20000002
220 162.410354614 5.633803 1.3333334 7.1481985e-08
219 162.410354614 5.633803 2.0 7.1481985e-08
1472 162.410339355 47.887325 2.0 0.100000605
1473 162.410339355 47.887325 1.3333334 0.100000605
1480 162.410339355 47.183098 -1.3333334 0.1000006
1479 162.410339355 47.183098 -0.6666667 0.1000006
968 162.410339355 26.760563 2.0 3.395394e-07
969 162.410339355 26.760563 1.3333334 3.395394e-07
976 162.410339355 25.352112 0.6666667 3.2166892e-07
975 162.410339355 25.352112 1.3333334 3.2166892e-07
1226 164.262207031 41.549297 1.3333334 5.271796e-07
1227 164.262207031 41.549297 0.6666667 5.271796e-07
1234 164.262207031 39.43662 2.0 5.0037386e-07
1233 164.262207031 40.140846 0.6666667 5.0930913e-07
722 164.262207031 24.647888 1.3333334 0.20000032
723 164.262207031 24.647888 0.6666667 0.20000032
730 164.262207031 22.535212 2.0 0.20000029
729 164.262207031 23.239437 0.6666667 0.2000003
961 162.661987305 28.87324 0.6666667 3.6634515e-07
962 162.661987305 28.169014 2.0 3.574099e-07
969 162.661987305 26.760563 1.3333334 3.395394e-07
968 162.661987305 26.760563 2.0 3.395394e-07
457 162.661987305 23.239437 -1.3333334 0.2000003
458 162.661987305 23.239437 -2.0 0.2000003
465 162.661987305 20.422535 -1.3333334 0.20000026
464 162.661987305 21.12676 -2.0 0.20000027
723 162.662002563 24.647888 0.6666667 0.20000032
724 162.662002563 23.943663 2.0 0.2000003
731 162.662002563 22.535212 1.3333334 0.20000029
730 162.662002563 22.535212 2.0 0.20000029
219 162.662002563 5.633803 2.0 7.1481985e-08
220 162.662002563 5.633803 1.3333334 7.1481985e-08
227 162.662002563 4.2253523 0.6666667 5.361149e-08
226 162.662002563 4.2253523 1.3333334 5.361149e-08
839 160.598754883 29.577465 -2.0 0.20000038
840 160.598754883 28.87324 -1.3333334 0.20000038
847 160.598754883 26.760563 -0.6666667 0.20000035
846 160.598754883 27.464788 -2.0 0.20000035
335 160.598754883 11.971831 0.6666667 0.10000015
336 160.598754883 11.267606 2.0 0.10000014
343 160.598754883 9.859155 1.3333334 0.10000013
342 160.598754883 9.859155 2.0 0.10000013
1343 159.927947998 46.478874 1.3333334 0.10000059
1344 159.927947998 46.478874 0.6666667 0.10000059
1351 159.927947998 45.774647 0.6666667 0.10000058
1350 159.927947998 45.774647 1.3333334 0.10000058
839 159.927947998 29.577465 -2.0 0.20000038
840 159.927947998 28.87324 -1.3333334 0.20000038
847 159.927947998 26.760563 -0.6666667 0.20000035
846 159.927947998 27.464788 -2.0 0.20000035
1119 160.598709106 41.549297 -1.3333334 5.271796e-07
1120 160.598709106 41.549297 -2.0 5.271796e-07
1127 160.598709106 40.140846 -1.3333334 5.0930913e-07
1126 160.598709106 40.140846 -0.6666667 5.0930913e-07
615 160.598709106 13.380281 0.6666667 1.697697e-07
616 160.598709106 12.676056 2.0 1.6083446e-07
623 160.598709106 17.605635 1.3333334 0.100000225
622 160.598709106 17.605635 2.0 0.100000225
860 160.598693848 34.507042 0.0 4.3782714e-07
861 160.598693848 34.507042 -0.6666667 4.3782714e-07
868 160.598693848 31.690142 0.0 4.0208616e-07
867 160.598693848 32.394367 -0.6666667 4.110214e-07
356 160.598693848 7.0422535 0.6666667 0.10000009
357 160.598693848 12.676056 0.6666667 0.20000017
364 160.598693848 11.267606 0.6666667 0.20000015
363 160.598693848 11.267606 1.3333334 0.20000015
620 159.926773071 18.309858 1.3333334 0.10000023
621 159.926773071 18.309858 0.6666667 0.10000023
628 159.926773071 16.197184 2.0 0.10000021
627 159.926773071 16.90141 0.6666667 0.10000022
116 159.926773071 9.859155 -0.6666667 1.2509346e-07
117 159.926773071 9.154929 0.0 1.1615821e-07
124 159.926773071 7.0422535 -0.6666667 8.9352476e-08
123 159.926773071 7.0422535 0.0 8.9352476e-08
1364 159.92678833 44.366196 1.3333334 0.10000056
1365 159.92678833 44.366196 0.6666667 0.10000056
1372 159.92678833 43.661972 0.6666667 0.10000055
1371 159.92678833 43.661972 1.3333334 0.10000055
860 159.92678833 34.507042 0.0 4.3782714e-07
861 159.92678833 34.507042 -0.6666667 4.3782714e-07
868 159.92678833 31.690142 0.0 4.0208616e-07
867 159.92678833 32.394367 -0.6666667 4.110214e-07
1117 158.976913452 41.549297 0.0 5.271796e-07
1118 158.976913452 41.549297 -0.6666667 5.271796e-07
1125 158.976913452 40.140846 0.0 5.0930913e-07
1124 158.976913452 40.84507 -2.0 5.1824435e-07
613 158.976913452 13.380281 2.0 1.697697e-07
614 158.976913452 13.380281 1.3333334 1.697697e-07
621 158.976913452 18.309858 0.6666667 0.10000023
620 158.976913452 18.309858 1.3333334 0.10000023
846 158.976882935 27.464788 -2.0 0.20000035
847 158.976882935 26.760563 -0.6666667 0.20000035
854 158.976882935 36.619717 0.0 4.6463285e-07
853 158.976882935 25.352112 -2.0 0.20000033
342 158.976882935 9.859155 2.0 0.10000013
343 158.976882935 9.859155 1.3333334 0.10000013
350 158.976882935 8.450705 0.6666667 0.100000106
349 158.976882935 8.450705 1.3333334 0.100000106
1124 158.974212646 40.84507 -2.0 5.1824435e-07
1125 158.974212646 40.140846 0.0 5.0930913e-07
1132 158.974212646 39.43662 -2.0 5.0037386e-07
1131 158.974212646 39.43662 -1.3333334 5.0037386e-07
620 158.974212646 18.309858 1.3333334 0.10000023
621 158.974212646 18.309858 0.6666667 0.10000023
628 158.974212646 16.197184 2.0 0.10000021
627 158.974212646 16.90141 0.6666667 0.10000022
867 158.974243164 32.394367 -0.6666667 4.110214e-07
868 158.974243164 31.690142 0.0 4.0208616e-07
875 158.974243164 29.577465 -0.6666667 3.7528042e-07
874 158.974243164 29.577465 0.0 3.7528042e-07
363 158.974243164 11.267606 1.3333334 0.20000015
364 158.974243164 11.267606 0.6666667 0.20000015
371 158.974243164 9.154929 2.0 0.20000012
370 158.974243164 9.859155 0.6666667 0.20000012
1126 160.598693848 40.140846 -0.6666667 5.0930913e-07
1127 160.598693848 40.140846 -1.3333334 5.0930913e-07
1134 160.598693848 38.732395 -0.6666667 4.9143864e-07
1133 160.598693848 38.732395 0.0 4.9143864e-07
622 160.598693848 17.605635 2.0 0.100000225
623 160.598693848 17.605635 1.3333334 0.100000225
630 160.598693848 16.197184 0.6666667 0.10000021
629 160.598693848 16.197184 1.3333334 0.10000021
881 160.598693848 27.464788 -0.6666667 3.4847466e-07
882 160.598693848 26.760563 0.0 3.395394e-07
889 160.598693848 24.647888 -0.6666667 3.1273368e-07
888 160.598693848 24.647888 0.0 3.1273368e-07
377 160.598693848 7.746479 2.0 0.2000001
378 160.598693848 7.746479 1.3333334 0.2000001
385 160.598693848 23.239437 -1.3333334 2.9486318e-07
384 160.598693848 23.943663 -2.0 3.0379843e-07
627 159.917022705 16.90141 0.6666667 0.10000022
628 159.917022705 16.197184 2.0 0.10000021
635 159.917022705 14.788733 1.3333334 0.10000019
634 159.917022705 14.788733 2.0 0.10000019
123 159.917022705 7.0422535 0.0 8.9352476e-08
124 159.917022705 7.0422535 -0.6666667 8.9352476e-08
131 159.917022705 4.2253523 0.0 5.361149e-08
130 159.917022705 4.9295774 -0.6666667 6.254673e-08
1385 159.917007446 46.478874 -0.6666667 0.2000006
1386 159.917007446 46.478874 -1.3333334 0.2000006
1393 159.917007446 45.774647 -1.3333334 0.20000058
1392 159.917007446 45.774647 -0.6666667 0.20000058
881 159.917007446 27.464788 -0.6666667 3.4847466e-07
882 159.917007446 26.760563 0.0 3.395394e-07
889 159.917007446 24.647888 -0.6666667 3.1273368e-07
888 159.917007446 24.647888 0.0 3.1273368e-07
1131 158.954589844 39.43662 -1.3333334 5.0037386e-07
1132 158.954589844 39.43662 -2.0 5.0037386e-07
1139 158.954589844 38.028168 -1.3333334 4.8250337e-07
1138 158.954589844 38.028168 -0.6666667 4.8250337e-07
627 158.954589844 16.90141 0.6666667 0.10000022
628 158.954589844 16.197184 2.0 0.10000021
635 158.954589844 14.788733 1.3333334 0.10000019
634 158.954589844 14.788733 2.0 0.10000019
940 158.954544067 30.28169 -0.6666667 0.20000039
941 158.954544067 29.577465 0.0 0.20000038
948 158.954544067 26.760563 0.0 0.20000035
947 158.954544067 27.464788 0.0 0.20000035
436 158.954544067 18.309858 -2.0 0.10000023
437 158.954544067 17.605635 -1.3333334 0.100000225
444 158.954544067 15.492958 -2.0 0.100000195
443 158.954544067 15.492958 -1.3333334 0.100000195
1133 160.596832275 38.732395 0.0 4.9143864e-07
1134 160.596832275 38.732395 -0.6666667 4.9143864e-07
1141 160.596832275 37.323944 0.0 4.7356812e-07
1140 160.596832275 38.028168 -2.0 4.8250337e-07
629 160.596832275 16.197184 1.3333334 0.10000021
630 160.596832275 16.197184 0.6666667 0.10000021
637 160.596832275 14.084507 2.0 0.10000018
636 160.596832275 14.788733 0.6666667 0.10000019
1436 161.200408936 48.59155 -2.0 6.165321e-07
1437 161.200408936 47.887325 2.0 6.0759686e-07
1444 161.200408936 47.183098 2.0 5.986616e-07
1443 161.200408936 47.887325 -2.0 6.0759686e-07
932 161.200408936 33.09859 -0.6666667 0.20000042
933 161.200408936 32.394367 0.0 0.20000042
940 161.200408936 30.28169 -0.6666667 0.20000039
939 161.200408936 30.28169 0.0 0.20000039
933 160.596832275 32.394367 0.0 0.20000042
934 160.596832275 32.394367 -0.6666667 0.20000042
941 160.596832275 29.577465 0.0 0.20000038
940 160.596832275 30.28169 -0.6666667 0.20000039
429 160.596832275 20.422535 -1.3333334 0.10000026
430 160.596832275 20.422535 -2.0 0.10000026
437 160.596832275 17.605635 -1.3333334 0.100000225
436 160.596832275 18.309858 -2.0 0.10000023
634 159.887771606 14.788733 2.0 0.10000019
635 159.887771606 14.788733 1.3333334 0.10000019
642 159.887771606 13.380281 0.6666667 0.10000017
641 159.887771606 13.380281 1.3333334 0.10000017
130 159.887771606 4.9295774 -0.6666667 6.254673e-08
131 159.887771606 4.2253523 0.0 5.361149e-08
138 159.887771606 2.1126761 -0.6666667 2.6805743e-08
137 159.887771606 2.1126761 0.0 2.6805743e-08
1437 159.887771606 47.887325 2.0 6.0759686e-07
1438 159.887771606 47.887325 1.3333334 6.0759686e-07
1445 159.887771606 47.183098 1.3333334 5.986616e-07
1444 159.887771606 47.183098 2.0 5.986616e-07
933 159.887771606 32.394367 0.0 0.20000042
934 159.887771606 32.394367 -0.6666667 0.20000042
941 159.887771606 29.577465 0.0 0.20000038
940 159.887771606 30.28169 -0.6666667 0.20000039
635 158.899505615 14.788733 1.3333334 0.10000019
636 158.899505615 14.788733 0.6666667 0.10000019
643 158.899505615 12.676056 2.0 0.100000165
642 158.899505615 13.380281 0.6666667 0.10000017
131 158.899505615 4.2253523 0.0 5.361149e-08
132 158.899505615 4.2253523 -0.6666667 5.361149e-08
139 158.899505615 1.4084507 0.0 1.7870496e-08
138 158.899505615 2.1126761 -0.6666667 2.6805743e-08
934 158.899505615 32.394367 -0.6666667 0.20000042
935 158.899505615 31.690142 0.0 0.2000004
942 158.899505615 29.577465 -0.6666667 0.20000038
941 158.899505615 29.577465 0.0 0.20000038
430 158.899505615 20.422535 -2.0 0.10000026
431 158.899505615 19.71831 -1.3333334 0.100000255
438 158.899505615 17.605635 -2.0 0.100000225
437 158.899505615 17.605635 -1.3333334 0.100000225
642 160.593933105 13.380281 0.6666667 0.10000017
643 160.593933105 12.676056 2.0 0.100000165
650 160.593933105 17.605635 0.6666667 0.20000023
649 160.593933105 17.605635 1.3333334 0.20000023
138 160.593933105 2.1126761 -0.6666667 2.6805743e-08
139 160.593933105 1.4084507 0.0 1.7870496e-08
146 160.593933105 11.971831 -0.6666667 0.10000015
145 160.593933105 11.971831 0.0 0.10000015
926 160.593933105 35.21127 0.0 0.20000045
927 160.593933105 35.21127 -0.6666667 0.20000045
934 160.593933105 32.394367 -0.6666667 0.20000042
933 160.593933105 32.394367 0.0 0.20000042
422 160.593933105 23.239437 -2.0 0.1000003
423 160.593933105 22.535212 -1.3333334 0.100000285
430 160.593933105 20.422535 -2.0 0.10000026
429 160.593933105 20.422535 -1.3333334 0.10000026
643 159.849761963 12.676056 2.0 0.100000165
644 159.849761963 12.676056 1.3333334 0.100000165
651 159.849761963 16.90141 2.0 0.20000021
650 159.849761963 17.605635 0.6666667 0.20000023
139 159.849761963 1.4084507 0.0 1.7870496e-08
140 159.849761963 1.4084507 -0.6666667 1.7870496e-08
147 159.849761963 11.267606 0.0 0.10000014
146 159.849761963 11.971831 -0.6666667 0.10000015
1430 159.849746704 48.59155 2.0 6.165321e-07
1431 159.849746704 48.59155 1.3333334 6.165321e-07
1438 159.849746704 47.887325 1.3333334 6.0759686e-07
1437 159.849746704 47.887325 2.0 6.0759686e-07
926 159.849746704 35.21127 0.0 0.20000045
927 159.849746704 35.21127 -0.6666667 0.20000045
934 159.849746704 32.394367 -0.6666667 0.20000042
933 159.849746704 32.394367 0.0 0.20000042
694 158.82850647 19.014084 1.3333334 2.4125168e-07
695 158.82850647 19.014084 0.6666667 2.4125168e-07
702 158.82850647 23.239437 1.3333334 0.1000003
701 158.82850647 23.239437 2.0 0.1000003
190 158.82850647 9.154929 -0.6666667 0.20000012
191 158.82850647 8.450705 0.0 0.2000001
198 158.82850647 6.338028 -0.6666667 0.20000008
197 158.82850647 6.338028 0.0 0.20000008
927 158.82850647 35.21127 -0.6666667 0.20000045
928 158.82850647 34.507042 0.0 0.20000044
935 158.82850647 31.690142 0.0 0.2000004
934 158.82850647 32.394367 -0.6666667 0.20000042
423 158.82850647 22.535212 -1.3333334 0.100000285
424 158.82850647 22.535212 -2.0 0.100000285
431 158.82850647 19.71831 -1.3333334 0.100000255
430 158.82850647 20.422535 -2.0 0.10000026
696 160.588790894 24.647888 1.3333334 0.100000314
697 160.588790894 24.647888 0.6666667 0.100000314
704 160.588790894 22.535212 2.0 0.100000285
703 160.588790894 23.239437 0.6666667 0.1000003
192 160.588790894 8.450705 -0.6666667 0.2000001
193 160.588790894 7.746479 0.0 0.2000001
200 160.588790894 5.633803 -0.6666667 0.20000008
199 160.588790894 5.633803 0.0 0.20000008
919 160.588790894 26.056337 -0.6666667 0.10000033
920 160.588790894 25.352112 0.0 0.10000032
927 160.588790894 35.21127 -0.6666667 0.20000045
926 160.588790894 35.21127 0.0 0.20000045
415 160.588790894 12.676056 -1.3333334 1.6083446e-07
416 160.588790894 12.676056 -2.0 1.6083446e-07
423 160.588790894 22.535212 -1.3333334 0.100000285
422 160.588790894 23.239437 -2.0 0.1000003
697 159.792266846 24.647888 0.6666667 0.100000314
698 159.792266846 23.943663 2.0 0.10000031
705 159.792266846 22.535212 1.3333334 0.100000285
704 159.792266846 22.535212 2.0 0.100000285
193 159.792266846 7.746479 0.0 0.2000001
194 159.792266846 7.746479 -0.6666667 0.2000001
201 159.792266846 4.9295774 0.0 0.20000006
200 159.792266846 5.633803 -0.6666667 0.20000008
1423 159.792297363 49.295776 2.0 6.2546735e-07
1424 159.792297363 49.295776 1.3333334 6.2546735e-07
1431 159.792297363 48.59155 1.3333334 6.165321e-07
1430 159.792297363 48.59155 2.0 6.165321e-07
919 159.792297363 26.056337 -0.6666667 0.10000033
920 159.792297363 25.352112 0.0 0.10000032
927 159.792297363 35.21127 -0.6666667 0.20000045
926 159.792297363 35.21127 0.0 0.20000045
1200 158.721694946 40.140846 -0.6666667 0.20000051
1201 158.721694946 40.140846 -1.3333334 0.20000051
1208 158.721694946 38.732395 -0.6666667 0.2000005
1207 158.721694946 38.732395 0.0 0.2000005
696 158.721694946 24.647888 1.3333334 0.100000314
697 158.721694946 24.647888 0.6666667 0.100000314
704 158.721694946 22.535212 2.0 0.100000285
703 158.721694946 23.239437 0.6666667 0.1000003
920 158.721694946 25.352112 0.0 0.10000032
921 158.721694946 25.352112 -0.6666667 0.10000032
928 158.721694946 34.507042 0.0 0.20000044
927 158.721694946 35.21127 -0.6666667 0.20000045
416 158.721694946 12.676056 -2.0 1.6083446e-07
417 158.721694946 24.647888 -1.3333334 0.100000314
424 158.721694946 22.535212 -2.0 0.100000285
423 158.721694946 22.535212 -1.3333334 0.100000285
1192 160.583328247 41.549297 -0.6666667 0.20000052
1193 160.583328247 41.549297 -1.3333334 0.20000052
1200 160.583328247 40.140846 -0.6666667 0.20000051
1199 160.583328247 40.140846 0.0 0.20000051
688 160.583328247 20.422535 1.3333334 2.5912217e-07
689 160.583328247 20.422535 0.6666667 2.5912217e-07
696 160.583328247 24.647888 1.3333334 0.100000314
695 160.583328247 19.014084 0.6666667 2.4125168e-07
912 160.583343506 28.87324 0.0 0.10000037
913 160.583343506 28.87324 -0.6666667 0.10000037
920 160.583343506 25.352112 0.0 0.10000032
919 160.583343506 26.056337 -0.6666667 0.10000033
408 160.583343506 15.492958 -2.0 1.9657546e-07
409 160.583343506 14.788733 -1.3333334 1.876402e-07
416 160.583343506 12.676056 -2.0 1.6083446e-07
415 160.583343506 12.676056 -1.3333334 1.6083446e-07
689 159.726013184 20.422535 0.6666667 2.5912217e-07
690 159.726013184 19.71831 2.0 2.5018693e-07
697 159.726013184 24.647888 0.6666667 0.100000314
696 159.726013184 24.647888 1.3333334 0.100000314
185 159.726013184 10.56338 0.0 0.20000014
186 159.726013184 10.56338 -0.6666667 0.20000014
193 159.726013184 7.746479 0.0 0.2000001
192 159.726013184 8.450705 -0.6666667 0.2000001
1416 159.726013184 50.0 2.0 6.3440257e-07
1417 159.726013184 50.0 1.3333334 6.3440257e-07
1424 159.726013184 49.295776 1.3333334 6.2546735e-07
1423 159.726013184 49.295776 2.0 6.2546735e-07
912 159.726013184 28.87324 0.0 0.10000037
913 159.726013184 28.87324 -0.6666667 0.10000037
920 159.726013184 25.352112 0.0 0.10000032
919 159.726013184 26.056337 -0.6666667 0.10000033
1193 158.598358154 41.549297 -1.3333334 0.20000052
1194 158.598358154 41.549297 -2.0 0.20000052
1201 158.598358154 40.140846 -1.3333334 0.20000051
1200 158.598358154 40.140846 -0.6666667 0.20000051
689 158.598358154 20.422535 0.6666667 2.5912217e-07
690 158.598358154 19.71831 2.0 2.5018693e-07
697 158.598358154 24.647888 0.6666667 0.100000314
696 158.598358154 24.647888 1.3333334 0.100000314
913 158.598388672 28.87324 -0.6666667 0.10000037
914 158.598388672 28.169014 0.0 0.10000036
921 158.598388672 25.352112 -0.6666667 0.10000032
920 158.598388672 25.352112 0.0 0.10000032
409 158.598388672 14.788733 -1.3333334 1.876402e-07
410 158.598388672 14.788733 -2.0 1.876402e-07
417 158.598388672 24.647888 -1.3333334 0.100000314
416 158.598388672 12.676056 -2.0 1.6083446e-07
1185 160.577896118 42.957745 -1.3333334 0.20000055
1186 160.577896118 42.957745 -2.0 0.20000055
1193 160.577896118 41.549297 -1.3333334 0.20000052
1192 160.577896118 41.549297 -0.6666667 0.20000052
681 160.577896118 21.830986 2.0 2.769927e-07
682 160.577896118 21.830986 1.3333334 2.769927e-07
689 160.577896118 20.422535 0.6666667 2.5912217e-07
688 160.577896118 20.422535 1.3333334 2.5912217e-07
905 160.577911377 31.690142 -0.6666667 0.100000404
906 160.577911377 30.985916 0.0 0.1000004
913 160.577911377 28.87324 -0.6666667 0.10000037
912 160.577911377 28.87324 0.0 0.10000037
401 160.577911377 17.605635 -1.3333334 2.233812e-07
402 160.577911377 17.605635 -2.0 2.233812e-07
409 160.577911377 14.788733 -1.3333334 1.876402e-07
408 160.577911377 15.492958 -2.0 1.9657546e-07
682 159.639053345 21.830986 1.3333334 2.769927e-07
683 159.639053345 21.830986 0.6666667 2.769927e-07
690 159.639053345 19.71831 2.0 2.5018693e-07
689 159.639053345 20.422535 0.6666667 2.5912217e-07
178 159.639053345 0.70422536 -0.6666667 0.10000001
179 159.639053345 -1.2688052e-09 0.0 0.1
186 159.639053345 10.56338 -0.6666667 0.20000014
185 159.639053345 10.56338 0.0 0.20000014
1409 159.639053345 43.661972 2.0 0.20000055
1410 159.639053345 43.661972 1.3333334 0.20000055
1417 159.639053345 50.0 1.3333334 6.3440257e-07
1416 159.639053345 50.0 2.0 6.3440257e-07
905 159.639053345 31.690142 -0.6666667 0.100000404
906 159.639053345 30.985916 0.0 0.1000004
913 159.639053345 28.87324 -0.6666667 0.10000037
912 159.639053345 28.87324 0.0 0.10000037
1186 158.432540894 42.957745 -2.0 0.20000055
1187 158.432540894 42.25352 0.0 0.20000054
1194 158.432540894 41.549297 -2.0 0.20000052
1193 158.432540894 41.549297 -1.3333334 0.20000052
682 158.432540894 21.830986 1.3333334 2.769927e-07
683 158.432540894 21.830986 0.6666667 2.769927e-07
690 158.432540894 19.71831 2.0 2.5018693e-07
689 158.432540894 20.422535 0.6666667 2.5912217e-07
906 158.432556152 30.985916 0.0 0.1000004
907 158.432556152 30.985916 -0.6666667 0.1000004
914 158.432556152 28.169014 0.0 0.10000036
913 158.432556152 28.87324 -0.6666667 0.10000037
402 158.432556152 17.605635 -2.0 2.233812e-07
403 158.432556152 16.90141 -1.3333334 2.1444595e-07
410 158.432556152 14.788733 -2.0 1.876402e-07
409 158.432556152 14.788733 -1.3333334 1.876402e-07
674 161.367538452 23.943663 0.0 3.0379843e-07
675 161.367538452 23.239437 2.0 2.9486318e-07
682 161.367538452 21.830986 1.3333334 2.769927e-07
681 161.367538452 21.830986 2.0 2.769927e-07
170 161.367538452 3.5211267 -0.6666667 0.100000046
171 161.367538452 2.8169014 0.0 0.10000004
178 161.367538452 0.70422536 -0.6666667 0.10000001
177 161.367538452 0.70422536 0.0 0.10000001
1178 160.574035645 38.028168 -2.0 0.100000486
1179 160.574035645 37.323944 0.0 0.10000047
1186 160.574035645 42.957745 -2.0 0.20000055
1185 160.574035645 42.957745 -1.3333334 0.20000055
674 160.574035645 23.943663 0.0 3.0379843e-07
675 160.574035645 23.239437 2.0 2.9486318e-07
682 160.574035645 21.830986 1.3333334 2.769927e-07
681 160.574035645 21.830986 2.0 2.769927e-07
1401 160.574035645 45.070423 -2.0 0.20000057
1402 160.574035645 44.366196 2.0 0.20000057
1409 160.574035645 43.661972 2.0 0.20000055
1408 160.574035645 44.366196 -2.0 0.20000057
897 160.574035645 34.507042 -0.6666667 0.10000044
898 160.574035645 33.80282 0.0 0.100000426
905 160.574035645 31.690142 -0.6666667 0.100000404
904 160.574035645 31.690142 0.0 0.100000404
675 159.542572021 23.239437 2.0 2.9486318e-07
676 159.542572021 23.239437 1.3333334 2.9486318e-07
683 159.542572021 21.830986 0.6666667 2.769927e-07
682 159.542572021 21.830986 1.3333334 2.769927e-07
171 159.542572021 2.8169014 0.0 0.10000004
172 159.542572021 2.8169014 -0.6666667 0.10000004
179 159.542572021 -1.2688052e-09 0.0 0.1
178 159.542572021 0.70422536 -0.6666667 0.10000001
890 159.542572021 36.619717 0.0 0.10000046
891 159.542572021 36.619717 -0.6666667 0.10000046
898 159.542572021 33.80282 0.0 0.100000426
897 159.542572021 34.507042 -0.6666667 0.10000044
386 159.542572021 23.239437 -2.0 2.9486318e-07
387 159.542572021 22.535212 -1.3333334 2.8592794e-07
394 159.542572021 20.422535 -2.0 2.5912217e-07
393 159.542572021 20.422535 -1.3333334 2.5912217e-07
1179 158.245437622 37.323944 0.0 0.10000047
1180 158.245437622 37.323944 -0.6666667 0.10000047
1187 158.245437622 42.25352 0.0 0.20000054
1186 158.245437622 42.957745 -2.0 0.20000055
675 158.245437622 23.239437 2.0 2.9486318e-07
676 158.245437622 23.239437 1.3333334 2.9486318e-07
683 158.245437622 21.830986 0.6666667 2.769927e-07
682 158.245437622 21.830986 1.3333334 2.769927e-07
1394 158.245422363 45.774647 -2.0 0.20000058
1395 158.245422363 45.070423 2.0 0.20000057
1402 158.245422363 44.366196 2.0 0.20000057
1401 158.245422363 45.070423 -2.0 0.20000057
890 158.245422363 36.619717 0.0 0.10000046
891 158.245422363 36.619717 -0.6666667 0.10000046
898 158.245422363 33.80282 0.0 0.100000426
897 158.245422363 34.507042 -0.6666667 0.10000044
1227 160.77696228 41.549297 0.6666667 5.271796e-07
1228 160.77696228 40.84507 2.0 5.1824435e-07
1235 160.77696228 39.43662 1.3333334 5.0037386e-07
1234 160.77696228 39.43662 2.0 5.0037386e-07
723 160.77696228 24.647888 0.6666667 0.20000032
724 160.77696228 23.943663 2.0 0.2000003
731 160.77696228 22.535212 1.3333334 0.20000029
730 160.77696228 22.535212 2.0 0.20000029
1220 160.661453247 42.957745 1.3333334 5.450501e-07
1221 160.661453247 42.957745 0.6666667 5.450501e-07
1228 160.661453247 40.84507 2.0 5.1824435e-07
1227 160.661453247 41.549297 0.6666667 5.271796e-07
716 160.661453247 19.71831 2.0 0.100000255
717 160.661453247 19.71831 1.3333334 0.100000255
724 160.661453247 23.943663 2.0 0.2000003
723 160.661453247 24.647888 0.6666667 0.20000032
969 160.661453247 26.760563 1.3333334 3.395394e-07
970 160.661453247 26.760563 0.6666667 3.395394e-07
977 160.661453247 24.647888 2.0 3.1273368e-07
976 160.661453247 25.352112 0.6666667 3.2166892e-07
465 160.661453247 20.422535 -1.3333334 0.20000026
466 160.661453247 20.422535 -2.0 0.20000026
473 160.661453247 17.605635 -1.3333334 0.20000023
472 160.661453247 18.309858 -2.0 0.20000024
724 158.117034912 23.943663 2.0 0.2000003
725 158.117034912 23.943663 1.3333334 0.2000003
732 158.117034912 22.535212 0.6666667 0.20000029
731 158.117034912 22.535212 1.3333334 0.20000029
220 158.117034912 5.633803 1.3333334 7.1481985e-08
221 158.117034912 5.633803 0.6666667 7.1481985e-08
228 158.117034912 3.5211267 2.0 4.4676238e-08
227 158.117034912 4.2253523 0.6666667 5.361149e-08
717 158.090515137 19.71831 1.3333334 0.100000255
718 158.090515137 19.71831 0.6666667 0.100000255
725 158.090515137 23.943663 1.3333334 0.2000003
724 158.090515137 23.943663 2.0 0.2000003
213 158.090515137 0.70422536 0.0 0.20000002
214 158.090515137 0.70422536 -0.6666667 0.20000002
221 158.090515137 5.633803 0.6666667 7.1481985e-08
220 158.090515137 5.633803 1.3333334 7.1481985e-08
970 158.090499878 26.760563 0.6666667 3.395394e-07
971 158.090499878 26.056337 2.0 3.3060417e-07
978 158.090499878 24.647888 1.3333334 3.1273368e-07
977 158.090499878 24.647888 2.0 3.1273368e-07
466 158.090499878 20.422535 -2.0 0.20000026
467 158.090499878 19.71831 -1.3333334 0.20000026
474 158.090499878 17.605635 -2.0 0.20000023
473 158.090499878 17.605635 -1.3333334 0.20000023
1213 160.56880188 38.028168 -1.3333334 0.20000048
1214 160.56880188 38.028168 -2.0 0.20000048
1221 160.56880188 42.957745 0.6666667 5.450501e-07
1220 160.56880188 42.957745 1.3333334 5.450501e-07
709 160.56880188 21.830986 0.6666667 0.10000028
710 160.56880188 21.12676 2.0 0.10000027
717 160.56880188 19.71831 1.3333334 0.100000255
716 160.56880188 19.71831 2.0 0.100000255
976 160.568817139 25.352112 0.6666667 3.2166892e-07
977 160.568817139 24.647888 2.0 3.1273368e-07
984 160.568817139 29.577465 1.3333334 0.100000374
983 160.568817139 29.577465 2.0 0.100000374
472 160.568817139 18.309858 -2.0 0.20000024
473 160.568817139 17.605635 -1.3333334 0.20000023
480 160.568817139 15.492958 -2.0 0.2000002
479 160.568817139 15.492958 -1.3333334 0.2000002
710 158.240692139 21.12676 2.0 0.10000027
711 158.240692139 21.12676 1.3333334 0.10000027
718 158.240692139 19.71831 0.6666667 0.100000255
717 158.240692139 19.71831 1.3333334 0.100000255
206 158.240692139 3.5211267 -0.6666667 0.20000005
207 158.240692139 2.8169014 0.0 0.20000003
214 158.240692139 0.70422536 -0.6666667 0.20000002
213 158.240692139 0.70422536 0.0 0.20000002
1480 158.240692139 47.183098 -1.3333334 0.1000006
1481 158.240692139 47.183098 -2.0 0.1000006
1488 158.240692139 50.0 -2.0 0.20000064
1487 158.240692139 50.0 -1.3333334 0.20000064
976 158.240692139 25.352112 0.6666667 3.2166892e-07
977 158.240692139 24.647888 2.0 3.1273368e-07
984 158.240692139 29.577465 1.3333334 0.100000374
983 158.240692139 29.577465 2.0 0.100000374
1228 153.825744629 40.84507 2.0 5.1824435e-07
1229 153.825744629 40.84507 1.3333334 5.1824435e-07
1236 153.825744629 39.43662 0.6666667 5.0037386e-07
1235 153.825744629 39.43662 1.3333334 5.0037386e-07
724 153.825744629 23.943663 2.0 0.2000003
725 153.825744629 23.943663 1.3333334 0.2000003
732 153.825744629 22.535212 0.6666667 0.20000029
731 153.825744629 22.535212 1.3333334 0.20000029
1221 155.179550171 42.957745 0.6666667 5.450501e-07
1222 155.179550171 42.25352 2.0 5.3611484e-07
1229 155.179550171 40.84507 1.3333334 5.1824435e-07
1228 155.179550171 40.84507 2.0 5.1824435e-07
717 155.179550171 19.71831 1.3333334 0.100000255
718 155.179550171 19.71831 0.6666667 0.100000255
725 155.179550171 23.943663 1.3333334 0.2000003
724 155.179550171 23.943663 2.0 0.2000003
1473 155.179504395 47.887325 1.3333334 0.100000605
1474 155.179504395 47.887325 0.6666667 0.100000605
1481 155.179504395 47.183098 -2.0 0.1000006
1480 155.179504395 47.183098 -1.3333334 0.1000006
969 155.179504395 26.760563 1.3333334 3.395394e-07
970 155.179504395 26.760563 0.6666667 3.395394e-07
977 155.179504395 24.647888 2.0 3.1273368e-07
976 155.179504395 25.352112 0.6666667 3.2166892e-07
1214 155.70463562 38.028168 -2.0 0.20000048
1215 155.70463562 37.323944 0.0 0.20000048
1222 155.70463562 42.25352 2.0 5.3611484e-07
1221 155.70463562 42.957745 0.6666667 5.450501e-07
710 155.70463562 21.12676 2.0 0.10000027
711 155.70463562 21.12676 1.3333334 0.10000027
718 155.70463562 19.71831 0.6666667 0.100000255
717 155.70463562 19.71831 1.3333334 0.100000255
967 155.70463562 27.464788 0.6666667 3.4847466e-07
968 155.70463562 26.760563 2.0 3.395394e-07
975 155.70463562 25.352112 1.3333334 3.2166892e-07
974 155.70463562 25.352112 2.0 3.2166892e-07
463 155.70463562 21.12676 -1.3333334 0.20000027
464 155.70463562 21.12676 -2.0 0.20000027
471 155.70463562 18.309858 -1.3333334 0.20000024
470 155.70463562 19.014084 -2.0 0.20000024
703 160.525131226 23.239437 0.6666667 0.1000003
704 160.525131226 22.535212 2.0 0.100000285
711 160.525131226 21.12676 1.3333334 0.10000027
710 160.525131226 21.12676 2.0 0.10000027
199 160.525131226 5.633803 0.0 0.20000008
200 160.525131226 5.633803 -0.6666667 0.20000008
207 160.525131226 2.8169014 0.0 0.20000003
206 160.525131226 3.5211267 -0.6666667 0.20000005
983 160.525131226 29.577465 2.0 0.100000374
984 160.525131226 29.577465 1.3333334 0.100000374
991 160.525131226 28.169014 0.6666667 0.10000036
990 160.525131226 28.169014 1.3333334 0.10000036
479 160.525131226 15.492958 -1.3333334 0.2000002
480 160.525131226 15.492958 -2.0 0.2000002
487 160.525131226 12.676056 -1.3333334 0.20000017
486 160.525131226 13.380281 -2.0 0.20000017
1207 158.47555542 38.732395 0.0 0.2000005
1208 158.47555542 38.732395 -0.6666667 0.2000005
1215 158.47555542 37.323944 0.0 0.20000048
1214 158.47555542 38.028168 -2.0 0.20000048
703 158.47555542 23.239437 0.6666667 0.1000003
704 158.47555542 22.535212 2.0 0.100000285
711 158.47555542 21.12676 1.3333334 0.10000027
710 158.47555542 21.12676 2.0 0.10000027
1487 158.475570679 50.0 -1.3333334 0.20000064
1488 158.475570679 50.0 -2.0 0.20000064
1495 158.475570679 49.295776 -2.0 0.20000063
1494 158.475570679 49.295776 -1.3333334 0.20000063
983 158.475570679 29.577465 2.0 0.100000374
984 158.475570679 29.577465 1.3333334 0.100000374
991 158.475570679 28.169014 0.6666667 0.10000036
990 158.475570679 28.169014 1.3333334 0.10000036
1208 156.21484375 38.732395 -0.6666667 0.2000005
1209 156.21484375 38.732395 -1.3333334 0.2000005
1216 156.21484375 37.323944 -0.6666667 0.20000048
1215 156.21484375 37.323944 0.0 0.20000048
704 156.21484375 22.535212 2.0 0.100000285
705 156.21484375 22.535212 1.3333334 0.100000285
712 156.21484375 21.12676 0.6666667 0.10000027
711 156.21484375 21.12676 1.3333334 0.10000027
974 156.214859009 25.352112 2.0 3.2166892e-07
975 156.214859009 25.352112 1.3333334 3.2166892e-07
982 156.214859009 30.28169 0.6666667 0.10000039
981 156.214859009 30.28169 1.3333334 0.10000039
470 156.214859009 19.014084 -2.0 0.20000024
471 156.214859009 18.309858 -1.3333334 0.20000024
478 156.214859009 16.197184 -2.0 0.20000021
477 156.214859009 16.197184 -1.3333334 0.20000021
647 161.793930054 18.309858 0.6666667 0.20000024
648 161.793930054 17.605635 2.0 0.20000023
655 161.793930054 16.197184 1.3333334 0.20000021
654 161.793930054 16.197184 2.0 0.20000021
143 161.793930054 0.0 0.0 0.0
144 161.793930054 0.0 -0.6666667 0.0
151 161.793930054 9.859155 0.0 0.10000013
150 161.793930054 10.56338 -0.6666667 0.100000136
1151 160.528274536 42.25352 0.0 0.10000054
1152 160.528274536 42.25352 -0.6666667 0.10000054
1159 160.528274536 40.84507 0.0 0.100000516
1158 160.528274536 41.549297 -2.0 0.10000053
647 160.528274536 18.309858 0.6666667 0.20000024
648 160.528274536 17.605635 2.0 0.20000023
655 160.528274536 16.197184 1.3333334 0.20000021
654 160.528274536 16.197184 2.0 0.20000021
990 160.528274536 28.169014 1.3333334 0.10000036
991 160.528274536 28.169014 0.6666667 0.10000036
998 160.528274536 26.056337 2.0 0.10000033
997 160.528274536 26.760563 0.6666667 0.100000344
486 160.528274536 13.380281 -2.0 0.20000017
487 160.528274536 12.676056 -1.3333334 0.20000017
494 160.528274536 21.830986 0.0 2.769927e-07
493 160.528274536 22.535212 -0.6666667 2.8592794e-07
1144 158.708587646 37.323944 -2.0 4.7356812e-07
1145 158.708587646 36.619717 -1.3333334 4.6463285e-07
1152 158.708587646 42.25352 -0.6666667 0.10000054
1151 158.708587646 42.25352 0.0 0.10000054
640 158.708587646 13.380281 2.0 0.10000017
641 158.708587646 13.380281 1.3333334 0.10000017
648 158.708587646 17.605635 2.0 0.20000023
647 158.708587646 18.309858 0.6666667 0.20000024
1494 158.708587646 49.295776 -1.3333334 0.20000063
1495 158.708587646 49.295776 -2.0 0.20000063
1502 158.708587646 48.59155 -2.0 0.20000061
1501 158.708587646 48.59155 -1.3333334 0.20000061
990 158.708587646 28.169014 1.3333334 0.10000036
991 158.708587646 28.169014 0.6666667 0.10000036
998 158.708587646 26.056337 2.0 0.10000033
997 158.708587646 26.760563 0.6666667 0.100000344
701 156.652130127 23.239437 2.0 0.1000003
702 156.652130127 23.239437 1.3333334 0.1000003
709 156.652130127 21.830986 0.6666667 0.10000028
708 156.652130127 21.830986 1.3333334 0.10000028
197 156.652130127 6.338028 0.0 0.20000008
198 156.652130127 6.338028 -0.6666667 0.20000008
205 156.652130127 3.5211267 0.0 0.20000005
204 156.652130127 4.2253523 -0.6666667 0.20000006
981 156.652130127 30.28169 1.3333334 0.10000039
982 156.652130127 30.28169 0.6666667 0.10000039
989 156.652130127 28.169014 2.0 0.10000036
988 156.652130127 28.87324 0.6666667 0.10000037
477 156.652130127 16.197184 -1.3333334 0.20000021
478 156.652130127 16.197184 -2.0 0.20000021
485 156.652130127 13.380281 -1.3333334 0.20000017
484 156.652130127 14.084507 -2.0 0.20000018
1157 161.682403564 41.549297 -1.3333334 0.10000053
1158 161.682403564 41.549297 -2.0 0.10000053
1165 161.682403564 40.140846 -1.3333334 0.10000051
1164 161.682403564 40.140846 -0.6666667 0.10000051
653 161.682403564 16.90141 0.6666667 0.20000021
654 161.682403564 16.197184 2.0 0.20000021
661 161.682403564 14.788733 1.3333334 0.2000002
660 161.682403564 14.788733 2.0 0.2000002
654 160.541320801 16.197184 2.0 0.20000021
655 160.541320801 16.197184 1.3333334 0.20000021
662 160.541320801 14.788733 0.6666667 0.2000002
661 160.541320801 14.788733 1.3333334 0.2000002
150 160.541320801 10.56338 -0.6666667 0.100000136
151 160.541320801 9.859155 0.0 0.10000013
158 160.541320801 7.746479 -0.6666667 0.1000001
157 160.541320801 7.746479 0.0 0.1000001
997 160.541320801 26.760563 0.6666667 0.100000344
998 160.541320801 26.056337 2.0 0.10000033
1005 160.541320801 30.28169 2.0 0.20000039
1004 160.541320801 24.647888 2.0 0.100000314
493 160.541320801 22.535212 -0.6666667 2.8592794e-07
494 160.541320801 21.830986 0.0 2.769927e-07
501 160.541320801 19.71831 -0.6666667 2.5018693e-07
500 160.541320801 19.71831 0.0 2.5018693e-07
1158 158.923187256 41.549297 -2.0 0.10000053
1159 158.923187256 40.84507 0.0 0.100000516
1166 158.923187256 40.140846 -2.0 0.10000051
1165 158.923187256 40.140846 -1.3333334 0.10000051
654 158.923187256 16.197184 2.0 0.20000021
655 158.923187256 16.197184 1.3333334 0.20000021
662 158.923187256 14.788733 0.6666667 0.2000002
661 158.923187256 14.788733 1.3333334 0.2000002
1501 158.923171997 48.59155 -1.3333334 0.20000061
1502 158.923171997 48.59155 -2.0 0.20000061
1509 158.923171997 47.887325 -2.0 0.20000061
1508 158.923171997 47.887325 -1.3333334 0.20000061
997 158.923171997 26.760563 0.6666667 0.100000344
998 158.923171997 26.056337 2.0 0.10000033
1005 158.923171997 30.28169 2.0 0.20000039
1004 158.923171997 24.647888 2.0 0.100000314
646 157.060852051 18.309858 1.3333334 0.20000024
647 157.060852051 18.309858 0.6666667 0.20000024
654 157.060852051 16.197184 2.0 0.20000021
653 157.060852051 16.90141 0.6666667 0.20000021
142 157.060852051 0.70422536 -0.6666667 8.935248e-09
143 157.060852051 0.0 0.0 0.0
150 157.060852051 10.56338 -0.6666667 0.100000136
149 157.060852051 10.56338 0.0 0.100000136
988 157.060852051 28.87324 0.6666667 0.10000037
989 157.060852051 28.169014 2.0 0.10000036
996 157.060852051 26.760563 1.3333334 0.100000344
995 157.060852051 26.760563 2.0 0.100000344
484 157.060852051 14.084507 -2.0 0.20000018
485 157.060852051 13.380281 -1.3333334 0.20000017
492 157.060852051 22.535212 0.0 2.8592794e-07
491 157.060852051 23.239437 -0.6666667 2.9486318e-07
1156 160.552520752 41.549297 -0.6666667 0.10000053
1157 160.552520752 41.549297 -1.3333334 0.10000053
1164 160.552520752 40.140846 -0.6666667 0.10000051
1163 160.552520752 40.140846 0.0 0.10000051
652 160.552520752 16.90141 1.3333334 0.20000021
653 160.552520752 16.90141 0.6666667 0.20000021
660 160.552520752 14.788733 2.0 0.2000002
659 160.552520752 15.492958 0.6666667 0.2000002
1389 160.552536011 45.774647 1.3333334 0.20000058
1390 160.552536011 45.774647 0.6666667 0.20000058
1397 160.552536011 45.070423 0.6666667 0.20000057
1396 160.552536011 45.070423 1.3333334 0.20000057
885 160.552536011 26.056337 -0.6666667 3.3060417e-07
886 160.552536011 25.352112 0.0 3.2166892e-07
893 160.552536011 35.915493 -0.6666667 0.100000456
892 160.552536011 35.915493 0.0 0.100000456
645 159.108917236 18.309858 2.0 0.20000024
646 159.108917236 18.309858 1.3333334 0.20000024
653 159.108917236 16.90141 0.6666667 0.20000021
652 159.108917236 16.90141 1.3333334 0.20000021
141 159.108917236 0.70422536 0.0 8.935248e-09
142 159.108917236 0.70422536 -0.6666667 8.935248e-09
149 159.108917236 10.56338 0.0 0.100000136
148 159.108917236 11.267606 -0.6666667 0.10000014
1382 159.108917236 46.478874 1.3333334 0.2000006
1383 159.108917236 46.478874 0.6666667 0.2000006
1390 159.108917236 45.774647 0.6666667 0.20000058
1389 159.108917236 45.774647 1.3333334 0.20000058
878 159.108917236 28.169014 0.0 3.574099e-07
879 159.108917236 28.169014 -0.6666667 3.574099e-07
886 159.108917236 25.352112 0.0 3.2166892e-07
885 159.108917236 26.056337 -0.6666667 3.3060417e-07
1149 157.412826538 42.957745 -1.3333334 0.100000545
1150 157.412826538 42.957745 -2.0 0.100000545
1157 157.412826538 41.549297 -1.3333334 0.10000053
1156 157.412826538 41.549297 -0.6666667 0.10000053
645 157.412826538 18.309858 2.0 0.20000024
646 157.412826538 18.309858 1.3333334 0.20000024
653 157.412826538 16.90141 0.6666667 0.20000021
652 157.412826538 16.90141 1.3333334 0.20000021
995 157.412826538 26.760563 2.0 0.100000344
996 157.412826538 26.760563 1.3333334 0.100000344
1003 157.412826538 25.352112 0.6666667 0.10000032
1002 157.412826538 25.352112 1.3333334 0.10000032
491 157.412826538 23.239437 -0.6666667 2.9486318e-07
492 157.412826538 22.535212 0.0 2.8592794e-07
499 157.412826538 20.422535 -0.6666667 2.5912217e-07
498 157.412826538 20.422535 0.0 2.5912217e-07
1163 160.5625 40.140846 0.0 0.10000051
1164 160.5625 40.140846 -0.6666667 0.10000051
1171 160.5625 38.732395 0.0 0.10000049
1170 160.5625 39.43662 -2.0 0.1000005
659 160.5625 15.492958 0.6666667 0.2000002
660 160.5625 14.788733 2.0 0.2000002
667 160.5625 13.380281 1.3333334 0.20000017
666 160.5625 13.380281 2.0 0.20000017
884 160.562484741 26.056337 0.0 3.3060417e-07
885 160.562484741 26.056337 -0.6666667 3.3060417e-07
892 160.562484741 35.915493 0.0 0.100000456
891 160.562484741 36.619717 -0.6666667 0.10000046
380 160.562484741 7.0422535 2.0 0.20000009
381 160.562484741 7.0422535 1.3333334 0.20000009
388 160.562484741 22.535212 -2.0 2.8592794e-07
387 160.562484741 22.535212 -1.3333334 2.8592794e-07
660 159.279922485 14.788733 2.0 0.2000002
661 159.279922485 14.788733 1.3333334 0.2000002
668 159.279922485 13.380281 0.6666667 0.20000017
667 159.279922485 13.380281 1.3333334 0.20000017
156 159.279922485 8.450705 -0.6666667 0.100000106
157 159.279922485 7.746479 0.0 0.1000001
164 159.279922485 5.633803 -0.6666667 0.100000076
163 159.279922485 5.633803 0.0 0.100000076
1388 159.279922485 45.774647 2.0 0.20000058
1389 159.279922485 45.774647 1.3333334 0.20000058
1396 159.279922485 45.070423 1.3333334 0.20000057
1395 159.279922485 45.070423 2.0 0.20000057
884 159.279922485 26.056337 0.0 3.3060417e-07
885 159.279922485 26.056337 -0.6666667 3.3060417e-07
892 159.279922485 35.915493 0.0 0.100000456
891 159.279922485 36.619717 -0.6666667 0.10000046
1164 157.737991333 40.140846 -0.6666667 0.10000051
1165 157.737991333 40.140846 -1.3333334 0.10000051
1172 157.737991333 38.732395 -0.6666667 0.10000049
1171 157.737991333 38.732395 0.0 0.10000049
660 157.737991333 14.788733 2.0 0.2000002
661 157.737991333 14.788733 1.3333334 0.2000002
668 157.737991333 13.380281 0.6666667 0.20000017
667 157.737991333 13.380281 1.3333334 0.20000017
892 157.737976074 35.915493 0.0 0.100000456
893 157.737976074 35.915493 -0.6666667 0.100000456
900 157.737976074 33.09859 0.0 0.10000042
899 157.737976074 33.80282 -0.6666667 0.100000426
388 157.737976074 22.535212 -2.0 2.8592794e-07
389 157.737976074 21.830986 -1.3333334 2.769927e-07
396 157.737976074 19.71831 -2.0 2.5018693e-07
395 157.737976074 19.71831 -1.3333334 2.5018693e-07
667 160.56918335 13.380281 1.3333334 0.20000017
668 160.56918335 13.380281 0.6666667 0.20000017
675 160.56918335 23.239437 2.0 2.9486318e-07
674 160.56918335 23.943663 0.0 3.0379843e-07
163 160.56918335 5.633803 0.0 0.100000076
164 160.56918335 5.633803 -0.6666667 0.100000076
171 160.56918335 2.8169014 0.0 0.10000004
170 160.56918335 3.5211267 -0.6666667 0.100000046
898 161.430999756 33.80282 0.0 0.100000426
899 161.430999756 33.80282 -0.6666667 0.100000426
906 161.430999756 30.985916 0.0 0.1000004
905 161.430999756 31.690142 -0.6666667 0.100000404
394 161.430999756 20.422535 -2.0 2.5912217e-07
395 161.430999756 19.71831 -1.3333334 2.5018693e-07
402 161.430999756 17.605635 -2.0 2.233812e-07
401 161.430999756 17.605635 -1.3333334 2.233812e-07
1402 160.56918335 44.366196 2.0 0.20000057
1403 160.56918335 44.366196 1.3333334 0.20000057
1410 160.56918335 43.661972 1.3333334 0.20000055
1409 160.56918335 43.661972 2.0 0.20000055
898 160.56918335 33.80282 0.0 0.100000426
899 160.56918335 33.80282 -0.6666667 0.100000426
906 160.56918335 30.985916 0.0 0.1000004
905 160.56918335 31.690142 -0.6666667 0.100000404
1171 159.419540405 38.732395 0.0 0.10000049
1172 159.419540405 38.732395 -0.6666667 0.10000049
1179 159.419540405 37.323944 0.0 0.10000047
1178 159.419540405 38.028168 -2.0 0.100000486
667 159.419540405 13.380281 1.3333334 0.20000017
668 159.419540405 13.380281 0.6666667 0.20000017
675 159.419540405 23.239437 2.0 2.9486318e-07
674 159.419540405 23.943663 0.0 3.0379843e-07
899 159.419540405 33.80282 -0.6666667 0.100000426
900 159.419540405 33.09859 0.0 0.10000042
907 159.419540405 30.985916 -0.6666667 0.1000004
906 159.419540405 30.985916 0.0 0.1000004
395 159.419540405 19.71831 -1.3333334 2.5018693e-07
396 159.419540405 19.71831 -2.0 2.5018693e-07
403 159.419540405 16.90141 -1.3333334 2.1444595e-07
402 159.419540405 17.605635 -2.0 2.233812e-07
668 158.004882812 13.380281 0.6666667 0.20000017
669 158.004882812 12.676056 2.0 0.20000017
676 158.004882812 23.239437 1.3333334 2.9486318e-07
675 158.004882812 23.239437 2.0 2.9486318e-07
164 158.004882812 5.633803 -0.6666667 0.100000076
165 158.004882812 4.9295774 0.0 0.10000006
172 158.004882812 2.8169014 -0.6666667 0.10000004
171 158.004882812 2.8169014 0.0 0.10000004
900 158.004898071 33.09859 0.0 0.10000042
901 158.004898071 33.09859 -0.6666667 0.10000042
908 158.004898071 30.28169 0.0 0.10000039
907 158.004898071 30.985916 -0.6666667 0.1000004
396 158.004898071 19.71831 -2.0 2.5018693e-07
397 158.004898071 19.014084 -1.3333334 2.4125168e-07
404 158.004898071 16.90141 -2.0 2.1444595e-07
403 158.004898071 16.90141 -1.3333334 2.1444595e-07
960 165.751663208 28.87324 1.3333334 3.6634515e-07
961 165.751663208 28.87324 0.6666667 3.6634515e-07
968 165.751663208 26.760563 2.0 3.395394e-07
967 165.751663208 27.464788 0.6666667 3.4847466e-07
456 165.751663208 23.943663 -2.0 0.2000003
457 165.751663208 23.239437 -1.3333334 0.2000003
464 165.751663208 21.12676 -2.0 0.20000027
463 165.751663208 21.12676 -1.3333334 0.20000027
1464 164.262207031 49.295776 -2.0 0.10000063
1465 164.262207031 48.59155 2.0 0.10000062
1472 164.262207031 47.887325 2.0 0.100000605
1471 164.262207031 48.59155 -2.0 0.10000062
960 164.262207031 28.87324 1.3333334 3.6634515e-07
961 164.262207031 28.87324 0.6666667 3.6634515e-07
968 164.262207031 26.760563 2.0 3.395394e-07
967 164.262207031 27.464788 0.6666667 3.4847466e-07
729 166.17868042 23.239437 0.6666667 0.2000003
730 166.17868042 22.535212 2.0 0.20000029
737 166.17868042 21.12676 1.3333334 0.20000027
736 166.17868042 21.12676 2.0 0.20000027
225 166.17868042 4.2253523 2.0 5.361149e-08
226 166.17868042 4.2253523 1.3333334 5.361149e-08
233 166.17868042 2.8169014 0.6666667 3.5740992e-08
232 166.17868042 2.8169014 1.3333334 3.5740992e-08
953 166.17868042 30.28169 2.0 3.8421567e-07
954 166.17868042 30.28169 1.3333334 3.8421567e-07
961 166.17868042 28.87324 0.6666667 3.6634515e-07
960 166.17868042 28.87324 1.3333334 3.6634515e-07
449 166.17868042 13.380281 -1.3333334 0.10000017
450 166.17868042 13.380281 -2.0 0.10000017
457 166.17868042 23.239437 -1.3333334 0.2000003
456 166.17868042 23.943663 -2.0 0.2000003
1233 164.610809326 40.140846 0.6666667 5.0930913e-07
1234 164.610809326 39.43662 2.0 5.0037386e-07
1241 164.610809326 38.028168 1.3333334 4.8250337e-07
1240 164.610809326 38.028168 2.0 4.8250337e-07
729 164.610809326 23.239437 0.6666667 0.2000003
730 164.610809326 22.535212 2.0 0.20000029
737 164.610809326 21.12676 1.3333334 0.20000027
736 164.610809326 21.12676 2.0 0.20000027
1457 164.610809326 50.0 -2.0 0.100000635
1458 164.610809326 49.295776 2.0 0.10000063
1465 164.610809326 48.59155 2.0 0.10000062
1464 164.610809326 49.295776 -2.0 0.10000063
953 164.610809326 30.28169 2.0 3.8421567e-07
954 164.610809326 30.28169 1.3333334 3.8421567e-07
961 164.610809326 28.87324 0.6666667 3.6634515e-07
960 164.610809326 28.87324 1.3333334 3.6634515e-07
939 162.955154419 30.28169 0.0 0.20000039
940 162.955154419 30.28169 -0.6666667 0.20000039
947 162.955154419 27.464788 0.0 0.20000035
946 162.955154419 28.169014 -0.6666667 0.20000036
435 162.955154419 18.309858 -1.3333334 0.10000023
436 162.955154419 18.309858 -2.0 0.10000023
443 162.955154419 15.492958 -1.3333334 0.100000195
442 162.955154419 16.197184 -2.0 0.10000021
736 166.643371582 21.12676 2.0 0.20000027
737 166.643371582 21.12676 1.3333334 0.20000027
744 166.643371582 19.71831 0.6666667 0.20000026
743 166.643371582 19.71831 1.3333334 0.20000026
232 166.643371582 2.8169014 1.3333334 3.5740992e-08
233 166.643371582 2.8169014 0.6666667 3.5740992e-08
240 166.643371582 0.70422536 2.0 8.935248e-09
239 166.643371582 1.4084507 0.6666667 1.7870496e-08
1240 165.003479004 38.028168 2.0 4.8250337e-07
1241 165.003479004 38.028168 1.3333334 4.8250337e-07
1248 165.003479004 36.619717 0.6666667 4.6463285e-07
1247 165.003479004 36.619717 1.3333334 4.6463285e-07
736 165.003479004 21.12676 2.0 0.20000027
737 165.003479004 21.12676 1.3333334 0.20000027
744 165.003479004 19.71831 0.6666667 0.20000026
743 165.003479004 19.71831 1.3333334 0.20000026
954 166.643371582 30.28169 1.3333334 3.8421567e-07
955 166.643371582 30.28169 0.6666667 3.8421567e-07
962 166.643371582 28.169014 2.0 3.574099e-07
961 166.643371582 28.87324 0.6666667 3.6634515e-07
450 166.643371582 13.380281 -2.0 0.10000017
451 166.643371582 12.676056 -1.3333334 0.100000165
458 166.643371582 23.239437 -2.0 0.2000003
457 166.643371582 23.239437 -1.3333334 0.2000003
1458 165.003463745 49.295776 2.0 0.10000063
1459 165.003463745 49.295776 1.3333334 0.10000063
1466 165.003463745 48.59155 1.3333334 0.10000062
1465 165.003463745 48.59155 2.0 0.10000062
954 165.003463745 30.28169 1.3333334 3.8421567e-07
955 165.003463745 30.28169 0.6666667 3.8421567e-07
962 165.003463745 28.169014 2.0 3.574099e-07
961 165.003463745 28.87324 0.6666667 3.6634515e-07
737 163.262512207 21.12676 1.3333334 0.20000027
738 163.262512207 21.12676 0.6666667 0.20000027
745 163.262512207 19.014084 2.0 0.20000024
744 163.262512207 19.71831 0.6666667 0.20000026
233 163.262512207 2.8169014 0.6666667 3.5740992e-08
234 163.262512207 2.1126761 2.0 2.6805743e-08
241 163.262512207 0.70422536 1.3333334 8.935248e-09
240 163.262512207 0.70422536 2.0 8.935248e-09
955 163.262512207 30.28169 0.6666667 3.8421567e-07
956 163.262512207 29.577465 2.0 3.7528042e-07
963 163.262512207 28.169014 1.3333334 3.574099e-07
962 163.262512207 28.169014 2.0 3.574099e-07
451 163.262512207 12.676056 -1.3333334 0.100000165
452 163.262512207 12.676056 -2.0 0.100000165
459 163.262512207 22.535212 -1.3333334 0.20000029
458 163.262512207 23.239437 -2.0 0.2000003
1242 167.183532715 38.028168 0.6666667 4.8250337e-07
1243 167.183532715 37.323944 2.0 4.7356812e-07
1250 167.183532715 42.957745 1.3333334 0.100000545
1249 167.183532715 42.957745 2.0 0.100000545
738 167.183532715 21.12676 0.6666667 0.20000027
739 167.183532715 20.422535 2.0 0.20000026
746 167.183532715 19.014084 1.3333334 0.20000024
745 167.183532715 19.014084 2.0 0.20000024
743 165.463302612 19.71831 1.3333334 0.20000026
744 165.463302612 19.71831 0.6666667 0.20000026
751 165.463302612 35.21127 -2.0 4.467624e-07
750 165.463302612 35.21127 -1.3333334 4.467624e-07
239 165.463302612 1.4084507 0.6666667 1.7870496e-08
240 165.463302612 0.70422536 2.0 8.935248e-09
247 165.463302612 6.338028 1.3333334 0.10000008
246 165.463302612 6.338028 2.0 0.10000008
1451 167.183532715 50.0 2.0 0.100000635
1452 167.183532715 50.0 1.3333334 0.100000635
1459 167.183532715 49.295776 1.3333334 0.10000063
1458 167.183532715 49.295776 2.0 0.10000063
947 167.183532715 27.464788 0.0 0.20000035
948 167.183532715 26.760563 0.0 0.20000035
955 167.183532715 30.28169 0.6666667 3.8421567e-07
954 167.183532715 30.28169 1.3333334 3.8421567e-07
1444 165.463302612 47.183098 2.0 5.986616e-07
1445 165.463302612 47.183098 1.3333334 5.986616e-07
1452 165.463302612 50.0 1.3333334 0.100000635
1451 165.463302612 50.0 2.0 0.100000635
940 165.463302612 30.28169 -0.6666667 0.20000039
941 165.463302612 29.577465 0.0 0.20000038
948 165.463302612 26.760563 0.0 0.20000035
947 165.463302612 27.464788 0.0 0.20000035
1247 163.595611572 36.619717 1.3333334 4.6463285e-07
1248 163.595611572 36.619717 0.6666667 4.6463285e-07
1255 163.595611572 41.549297 2.0 0.10000053
1254 163.595611572 42.25352 0.6666667 0.10000054
743 163.595611572 19.71831 1.3333334 0.20000026
744 163.595611572 19.71831 0.6666667 0.20000026
751 163.595611572 35.21127 -2.0 4.467624e-07
750 163.595611572 35.21127 -1.3333334 4.467624e-07
948 163.595611572 26.760563 0.0 0.20000035
949 163.595611572 26.056337 0.0 0.20000033
956 163.595611572 29.577465 2.0 3.7528042e-07
955 163.595611572 30.28169 0.6666667 3.8421567e-07
444 163.595611572 15.492958 -2.0 0.100000195
445 163.595611572 14.788733 -1.3333334 0.10000019
452 163.595611572 12.676056 -2.0 0.100000165
451 163.595611572 12.676056 -1.3333334 0.100000165
1249 167.890457153 42.957745 2.0 0.100000545
1250 167.890457153 42.957745 1.3333334 0.100000545
1257 167.890457153 41.549297 0.6666667 0.10000053
1256 167.890457153 41.549297 1.3333334 0.10000053
745 167.890457153 19.014084 2.0 0.20000024
746 167.890457153 19.014084 1.3333334 0.20000024
753 167.890457153 34.507042 -2.0 4.3782714e-07
752 167.890457153 34.507042 -1.3333334 4.3782714e-07
750 165.920501709 35.21127 -1.3333334 4.467624e-07
751 165.920501709 35.21127 -2.0 4.467624e-07
758 165.920501709 32.394367 -1.3333334 4.110214e-07
757 165.920501709 33.09859 -2.0 4.1995665e-07
246 165.920501709 6.338028 2.0 0.10000008
247 165.920501709 6.338028 1.3333334 0.10000008
254 165.920501709 4.9295774 0.6666667 0.10000006
253 165.920501709 4.9295774 1.3333334 0.10000006
886 167.890441895 25.352112 0.0 3.2166892e-07
887 167.890441895 25.352112 -0.6666667 3.2166892e-07
894 167.890441895 35.21127 0.0 0.10000045
893 167.890441895 35.915493 -0.6666667 0.100000456
382 167.890441895 7.0422535 0.6666667 0.20000009
383 167.890441895 23.943663 -1.3333334 3.0379843e-07
390 167.890441895 21.830986 -2.0 2.769927e-07
389 167.890441895 21.830986 -1.3333334 2.769927e-07
1390 165.920516968 45.774647 0.6666667 0.20000058
1391 165.920516968 45.774647 0.0 0.20000058
1398 165.920516968 45.070423 0.0 0.20000057
1397 165.920516968 45.070423 0.6666667 0.20000057
886 165.920516968 25.352112 0.0 3.2166892e-07
887 165.920516968 25.352112 -0.6666667 3.2166892e-07
894 165.920516968 35.21127 0.0 0.10000045
893 165.920516968 35.915493 -0.6666667 0.100000456
1254 163.948562622 42.25352 0.6666667 0.10000054
1255 163.948562622 41.549297 2.0 0.10000053
1262 163.948562622 40.140846 1.3333334 0.10000051
1261 163.948562622 40.140846 2.0 0.10000051
750 163.948562622 35.21127 -1.3333334 4.467624e-07
751 163.948562622 35.21127 -2.0 4.467624e-07
758 163.948562622 32.394367 -1.3333334 4.110214e-07
757 163.948562622 33.09859 -2.0 4.1995665e-07
887 163.948577881 25.352112 -0.6666667 3.2166892e-07
888 163.948577881 24.647888 0.0 3.1273368e-07
895 163.948577881 35.21127 -0.6666667 0.10000045
894 163.948577881 35.21127 0.0 0.10000045
383 163.948577881 23.943663 -1.3333334 3.0379843e-07
384 163.948577881 23.943663 -2.0 3.0379843e-07
391 163.948577881 21.12676 -1.3333334 2.6805742e-07
390 163.948577881 21.830986 -2.0 2.769927e-07
1255 168.794555664 41.549297 2.0 0.10000053
1256 168.794555664 41.549297 1.3333334 0.10000053
1263 168.794555664 40.140846 0.6666667 0.10000051
1262 168.794555664 40.140846 1.3333334 0.10000051
751 168.794555664 35.21127 -2.0 4.467624e-07
752 168.794555664 34.507042 -1.3333334 4.3782714e-07
759 168.794555664 32.394367 -2.0 4.110214e-07
758 168.794555664 32.394367 -1.3333334 4.110214e-07
752 166.427459717 34.507042 -1.3333334 4.3782714e-07
753 166.427459717 34.507042 -2.0 4.3782714e-07
760 166.427459717 31.690142 -1.3333334 4.0208616e-07
759 166.427459717 32.394367 -2.0 4.110214e-07
248 166.427459717 6.338028 0.6666667 0.10000008
249 166.427459717 5.633803 2.0 0.100000076
256 166.427459717 4.2253523 1.3333334 0.10000005
255 166.427459717 4.2253523 2.0 0.10000005
1398 168.794540405 45.070423 0.0 0.20000057
1399 168.794540405 45.070423 -0.6666667 0.20000057
1406 168.794540405 44.366196 -0.6666667 0.20000057
1405 168.794540405 44.366196 0.0 0.20000057
894 168.794540405 35.21127 0.0 0.10000045
895 168.794540405 35.21127 -0.6666667 0.10000045
902 168.794540405 32.394367 0.0 0.10000041
901 168.794540405 33.09859 -0.6666667 0.10000042
1404 166.427459717 44.366196 0.6666667 0.20000057
1405 166.427459717 44.366196 0.0 0.20000057
1412 166.427459717 43.661972 0.0 0.20000055
1411 166.427459717 43.661972 0.6666667 0.20000055
900 166.427459717 33.09859 0.0 0.10000042
901 166.427459717 33.09859 -0.6666667 0.10000042
908 166.427459717 30.28169 0.0 0.10000039
907 166.427459717 30.985916 -0.6666667 0.1000004
1256 164.351303101 41.549297 1.3333334 0.10000053
1257 164.351303101 41.549297 0.6666667 0.10000053
1264 164.351303101 39.43662 2.0 0.1000005
1263 164.351303101 40.140846 0.6666667 0.10000051
752 164.351303101 34.507042 -1.3333334 4.3782714e-07
753 164.351303101 34.507042 -2.0 4.3782714e-07
760 164.351303101 31.690142 -1.3333334 4.0208616e-07
759 164.351303101 32.394367 -2.0 4.110214e-07
901 164.351303101 33.09859 -0.6666667 0.10000042
902 164.351303101 32.394367 0.0 0.10000041
909 164.351303101 30.28169 -0.6666667 0.10000039
908 164.351303101 30.28169 0.0 0.10000039
397 164.351303101 19.014084 -1.3333334 2.4125168e-07
398 164.351303101 19.014084 -2.0 2.4125168e-07
405 164.351303101 16.197184 -1.3333334 2.055107e-07
404 164.351303101 16.90141 -2.0 2.1444595e-07
641 169.788543701 13.380281 1.3333334 0.10000017
642 169.788543701 13.380281 0.6666667 0.10000017
649 169.788543701 17.605635 1.3333334 0.20000023
648 169.788543701 17.605635 2.0 0.20000023
137 169.788543701 2.1126761 0.0 2.6805743e-08
138 169.788543701 2.1126761 -0.6666667 2.6805743e-08
145 169.788543701 11.971831 0.0 0.10000015
144 169.788543701 0.0 -0.6666667 0.0
1146 166.976669312 36.619717 -2.0 4.6463285e-07
1147 166.976669312 42.957745 0.0 0.100000545
1154 166.976669312 42.25352 -2.0 0.10000054
1153 166.976669312 42.25352 -1.3333334 0.10000054
642 166.976669312 13.380281 0.6666667 0.10000017
643 166.976669312 12.676056 2.0 0.100000165
650 166.976669312 17.605635 0.6666667 0.20000023
649 166.976669312 17.605635 1.3333334 0.20000023
1412 169.78855896 43.661972 0.0 0.20000055
1413 169.78855896 43.661972 -0.6666667 0.20000055
1420 169.78855896 50.0 -0.6666667 6.3440257e-07
1419 169.78855896 50.0 -5.551115e-17 6.3440257e-07
908 169.78855896 30.28169 0.0 0.10000039
909 169.78855896 30.28169 -0.6666667 0.10000039
916 169.78855896 27.464788 0.0 0.10000035
915 169.78855896 28.169014 -0.6666667 0.10000036
914 166.976654053 28.169014 0.0 0.10000036
915 166.976654053 28.169014 -0.6666667 0.10000036
922 166.976654053 36.619717 0.0 0.20000046
921 166.976654053 25.352112 -0.6666667 0.10000032
410 166.976654053 14.788733 -2.0 1.876402e-07
411 166.976654053 14.084507 -1.3333334 1.7870495e-07
418 166.976654053 24.647888 -2.0 0.100000314
417 166.976654053 24.647888 -1.3333334 0.100000314
648 164.790740967 17.605635 2.0 0.20000023
649 164.790740967 17.605635 1.3333334 0.20000023
656 164.790740967 16.197184 0.6666667 0.20000021
655 164.790740967 16.197184 1.3333334 0.20000021
144 164.790740967 0.0 -0.6666667 0.0
145 164.790740967 11.971831 0.0 0.10000015
152 164.790740967 9.859155 -0.6666667 0.10000013
151 164.790740967 9.859155 0.0 0.10000013
1418 164.790756226 50.0 0.6666667 6.3440257e-07
1419 164.790756226 50.0 -5.551115e-17 6.3440257e-07
1426 164.790756226 49.295776 0.0 6.2546735e-07
1425 164.790756226 49.295776 0.6666667 6.2546735e-07
914 164.790756226 28.169014 0.0 0.10000036
915 164.790756226 28.169014 -0.6666667 0.10000036
922 164.790756226 36.619717 0.0 0.20000046
921 164.790756226 25.352112 -0.6666667 0.10000032
655 170.705078125 16.197184 1.3333334 0.20000021
656 170.705078125 16.197184 0.6666667 0.20000021
663 170.705078125 14.084507 2.0 0.20000018
662 170.705078125 14.788733 0.6666667 0.2000002
151 170.705078125 9.859155 0.0 0.10000013
152 170.705078125 9.859155 -0.6666667 0.10000013
159 170.705078125 7.0422535 0.0 0.10000009
158 170.705078125 7.746479 -0.6666667 0.1000001
1159 167.673217773 40.84507 0.0 0.100000516
1160 167.673217773 40.84507 -0.6666667 0.100000516
1167 167.673217773 39.43662 0.0 0.1000005
1166 167.673217773 40.140846 -2.0 0.10000051
655 167.673217773 16.197184 1.3333334 0.20000021
656 167.673217773 16.197184 0.6666667 0.20000021
663 167.673217773 14.084507 2.0 0.20000018
662 167.673217773 14.788733 0.6666667 0.2000002
1425 170.705047607 49.295776 0.6666667 6.2546735e-07
1426 170.705047607 49.295776 0.0 6.2546735e-07
1433 170.705047607 48.59155 0.0 6.165321e-07
1432 170.705047607 48.59155 0.6666667 6.165321e-07
921 170.705047607 25.352112 -0.6666667 0.10000032
922 170.705047607 36.619717 0.0 0.20000046
929 170.705047607 34.507042 -0.6666667 0.20000044
928 170.705047607 34.507042 0.0 0.20000044
922 167.673217773 36.619717 0.0 0.20000046
923 167.673217773 36.619717 -0.6666667 0.20000046
930 167.673217773 33.80282 0.0 0.20000044
929 167.673217773 34.507042 -0.6666667 0.20000044
418 167.673217773 24.647888 -2.0 0.100000314
419 167.673217773 23.943663 -1.3333334 0.10000031
426 167.673217773 21.830986 -2.0 0.10000028
425 167.673217773 21.830986 -1.3333334 0.10000028
656 165.299041748 16.197184 0.6666667 0.20000021
657 165.299041748 15.492958 2.0 0.2000002
664 165.299041748 14.084507 1.3333334 0.20000018
663 165.299041748 14.084507 2.0 0.20000018
152 165.299041748 9.859155 -0.6666667 0.10000013
153 165.299041748 9.154929 0.0 0.10000012
160 165.299041748 7.0422535 -0.6666667 0.10000009
159 165.299041748 7.0422535 0.0 0.10000009
1426 165.299041748 49.295776 0.0 6.2546735e-07
1427 165.299041748 49.295776 -0.6666667 6.2546735e-07
1434 165.299041748 48.59155 -0.6666667 6.165321e-07
1433 165.299041748 48.59155 0.0 6.165321e-07
922 165.299041748 36.619717 0.0 0.20000046
923 165.299041748 36.619717 -0.6666667 0.20000046
930 165.299041748 33.80282 0.0 0.20000044
929 165.299041748 34.507042 -0.6666667 0.20000044
663 171.390411377 14.084507 2.0 0.20000018
664 171.390411377 14.084507 1.3333334 0.20000018
671 171.390411377 23.943663 2.0 3.0379843e-07
670 171.390411377 12.676056 1.3333334 0.20000017
159 171.390411377 7.0422535 0.0 0.10000009
160 171.390411377 7.0422535 -0.6666667 0.10000009
167 171.390411377 4.2253523 0.0 0.10000005
166 171.390411377 4.9295774 -0.6666667 0.10000006
1167 168.66859436 39.43662 0.0 0.1000005
1168 168.66859436 39.43662 -0.6666667 0.1000005
1175 168.66859436 38.028168 0.0 0.100000486
1174 168.66859436 38.732395 -2.0 0.10000049
663 168.66859436 14.084507 2.0 0.20000018
664 168.66859436 14.084507 1.3333334 0.20000018
671 168.66859436 23.943663 2.0 3.0379843e-07
670 168.66859436 12.676056 1.3333334 0.20000017
1433 171.390411377 48.59155 0.0 6.165321e-07
1434 171.390411377 48.59155 -0.6666667 6.165321e-07
1441 171.390411377 47.887325 -0.6666667 6.0759686e-07
1440 171.390411377 47.887325 0.0 6.0759686e-07
929 171.390411377 34.507042 -0.6666667 0.20000044
930 171.390411377 33.80282 0.0 0.20000044
937 171.390411377 30.985916 0.0 0.20000039
936 171.390411377 31.690142 -0.6666667 0.2000004
935 168.66859436 31.690142 0.0 0.2000004
936 168.66859436 31.690142 -0.6666667 0.2000004
943 168.66859436 28.87324 0.0 0.20000038
942 168.66859436 29.577465 -0.6666667 0.20000038
431 168.66859436 19.71831 -1.3333334 0.100000255
432 168.66859436 19.71831 -2.0 0.100000255
439 168.66859436 16.90141 -1.3333334 0.10000022
438 168.66859436 17.605635 -2.0 0.100000225
669 165.798355103 12.676056 2.0 0.20000017
670 165.798355103 12.676056 1.3333334 0.20000017
677 165.798355103 23.239437 0.6666667 2.9486318e-07
676 165.798355103 23.239437 1.3333334 2.9486318e-07
165 165.798355103 4.9295774 0.0 0.10000006
166 165.798355103 4.9295774 -0.6666667 0.10000006
173 165.798355103 2.1126761 0.0 0.10000003
172 165.798355103 2.8169014 -0.6666667 0.10000004
1439 165.798355103 47.887325 0.6666667 6.0759686e-07
1440 165.798355103 47.887325 0.0 6.0759686e-07
1447 165.798355103 47.183098 0.0 5.986616e-07
1446 165.798355103 47.183098 0.6666667 5.986616e-07
935 165.798355103 31.690142 0.0 0.2000004
936 165.798355103 31.690142 -0.6666667 0.2000004
943 165.798355103 28.87324 0.0 0.20000038
942 165.798355103 29.577465 -0.6666667 0.20000038
677 172.118743896 23.239437 0.6666667 2.9486318e-07
678 172.118743896 22.535212 2.0 2.8592794e-07
685 172.118743896 21.12676 1.3333334 2.6805742e-07
684 172.118743896 21.12676 2.0 2.6805742e-07
173 172.118743896 2.1126761 0.0 0.10000003
174 172.118743896 2.1126761 -0.6666667 0.10000003
181 172.118743896 11.971831 0.0 0.20000015
180 172.118743896 -1.2688052e-09 -0.6666667 0.1
1181 169.844955444 37.323944 -1.3333334 0.10000047
1182 169.844955444 37.323944 -2.0 0.10000047
1189 169.844955444 42.25352 -1.3333334 0.20000054
1188 169.844955444 42.25352 -0.6666667 0.20000054
677 169.844955444 23.239437 0.6666667 2.9486318e-07
678 169.844955444 22.535212 2.0 2.8592794e-07
685 169.844955444 21.12676 1.3333334 2.6805742e-07
684 169.844955444 21.12676 2.0 2.6805742e-07
943 172.118743896 28.87324 0.0 0.20000038
944 172.118743896 28.87324 -0.6666667 0.20000038
951 172.118743896 25.352112 0.0 0.20000033
950 172.118743896 26.056337 -0.6666667 0.20000033
439 172.118743896 16.90141 -1.3333334 0.10000022
440 172.118743896 16.90141 -2.0 0.10000022
447 172.118743896 14.084507 -1.3333334 0.10000018
446 172.118743896 14.788733 -2.0 0.10000019
949 166.386489868 26.056337 0.0 0.20000033
950 166.386489868 26.056337 -0.6666667 0.20000033
957 166.386489868 29.577465 1.3333334 3.7528042e-07
956 166.386489868 29.577465 2.0 3.7528042e-07
445 166.386489868 14.788733 -1.3333334 0.10000019
446 166.386489868 14.788733 -2.0 0.10000019
453 166.386489868 24.647888 -1.3333334 0.20000032
452 166.386489868 12.676056 -2.0 0.100000165
683 166.386489868 21.830986 0.6666667 2.769927e-07
684 166.386489868 21.12676 2.0 2.6805742e-07
691 166.386489868 19.71831 1.3333334 2.5018693e-07
690 166.386489868 19.71831 2.0 2.5018693e-07
179 166.386489868 -1.2688052e-09 0.0 0.1
180 166.386489868 -1.2688052e-09 -0.6666667 0.1
187 166.386489868 9.859155 0.0 0.20000012
186 166.386489868 10.56338 -0.6666667 0.20000014
1465 160.77696228 48.59155 2.0 0.10000062
1466 160.77696228 48.59155 1.3333334 0.10000062
1473 160.77696228 47.887325 1.3333334 0.100000605
1472 160.77696228 47.887325 2.0 0.100000605
961 160.77696228 28.87324 0.6666667 3.6634515e-07
962 160.77696228 28.169014 2.0 3.574099e-07
969 160.77696228 26.760563 1.3333334 3.395394e-07
968 160.77696228 26.760563 2.0 3.395394e-07
962 158.117019653 28.169014 2.0 3.574099e-07
963 158.117019653 28.169014 1.3333334 3.574099e-07
970 158.117019653 26.760563 0.6666667 3.395394e-07
969 158.117019653 26.760563 1.3333334 3.395394e-07
458 158.117019653 23.239437 -2.0 0.2000003
459 158.117019653 22.535212 -1.3333334 0.20000029
466 158.117019653 20.422535 -2.0 0.20000026
465 158.117019653 20.422535 -1.3333334 0.20000026
730 162.955154419 22.535212 2.0 0.20000029
731 162.955154419 22.535212 1.3333334 0.20000029
738 162.955154419 21.12676 0.6666667 0.20000027
737 162.955154419 21.12676 1.3333334 0.20000027
226 162.955154419 4.2253523 1.3333334 5.361149e-08
227 162.955154419 4.2253523 0.6666667 5.361149e-08
234 162.955154419 2.1126761 2.0 2.6805743e-08
233 162.955154419 2.8169014 0.6666667 3.5740992e-08
1234 160.950302124 39.43662 2.0 5.0037386e-07
1235 160.950302124 39.43662 1.3333334 5.0037386e-07
1242 160.950302124 38.028168 0.6666667 4.8250337e-07
1241 160.950302124 38.028168 1.3333334 4.8250337e-07
730 160.950302124 22.535212 2.0 0.20000029
731 160.950302124 22.535212 1.3333334 0.20000029
738 160.950302124 21.12676 0.6666667 0.20000027
737 160.950302124 21.12676 1.3333334 0.20000027
946 160.950286865 28.169014 -0.6666667 0.20000036
947 160.950286865 27.464788 0.0 0.20000035
954 160.950286865 30.28169 1.3333334 3.8421567e-07
953 160.950286865 30.28169 2.0 3.8421567e-07
442 160.950286865 16.197184 -2.0 0.10000021
443 160.950286865 15.492958 -1.3333334 0.100000195
450 160.950286865 13.380281 -2.0 0.10000017
449 160.950286865 13.380281 -1.3333334 0.10000017
731 158.217849731 22.535212 1.3333334 0.20000029
732 158.217849731 22.535212 0.6666667 0.20000029
739 158.217849731 20.422535 2.0 0.20000026
738 158.217849731 21.12676 0.6666667 0.20000027
227 158.217849731 4.2253523 0.6666667 5.361149e-08
228 158.217849731 3.5211267 2.0 4.4676238e-08
235 158.217849731 2.1126761 1.3333334 2.6805743e-08
234 158.217849731 2.1126761 2.0 2.6805743e-08
1450 158.217849731 47.183098 -2.0 5.986616e-07
1451 158.217849731 50.0 2.0 0.100000635
1458 158.217849731 49.295776 2.0 0.10000063
1457 158.217849731 50.0 -2.0 0.100000635
946 158.217849731 28.169014 -0.6666667 0.20000036
947 158.217849731 27.464788 0.0 0.20000035
954 158.217849731 30.28169 1.3333334 3.8421567e-07
953 158.217849731 30.28169 2.0 3.8421567e-07
1466 153.825790405 48.59155 1.3333334 0.10000062
1467 153.825790405 48.59155 0.6666667 0.10000062
1474 153.825790405 47.887325 0.6666667 0.100000605
1473 153.825790405 47.887325 1.3333334 0.100000605
962 153.825790405 28.169014 2.0 3.574099e-07
963 153.825790405 28.169014 1.3333334 3.574099e-07
970 153.825790405 26.760563 0.6666667 3.395394e-07
969 153.825790405 26.760563 1.3333334 3.395394e-07
1235 152.381484985 39.43662 1.3333334 5.0037386e-07
1236 152.381484985 39.43662 0.6666667 5.0037386e-07
1243 152.381484985 37.323944 2.0 4.7356812e-07
1242 152.381484985 38.028168 0.6666667 4.8250337e-07
731 152.381484985 22.535212 1.3333334 0.20000029
732 152.381484985 22.535212 0.6666667 0.20000029
739 152.381484985 20.422535 2.0 0.20000026
738 152.381484985 21.12676 0.6666667 0.20000027
1443 152.381439209 47.887325 -2.0 6.0759686e-07
1444 152.381439209 47.183098 2.0 5.986616e-07
1451 152.381439209 50.0 2.0 0.100000635
1450 152.381439209 47.183098 -2.0 5.986616e-07
939 152.381439209 30.28169 0.0 0.20000039
940 152.381439209 30.28169 -0.6666667 0.20000039
947 152.381439209 27.464788 0.0 0.20000035
946 152.381439209 28.169014 -0.6666667 0.20000036
1241 161.170852661 38.028168 1.3333334 4.8250337e-07
1242 161.170852661 38.028168 0.6666667 4.8250337e-07
1249 161.170852661 42.957745 2.0 0.100000545
1248 161.170852661 36.619717 0.6666667 4.6463285e-07
737 161.170852661 21.12676 1.3333334 0.20000027
738 161.170852661 21.12676 0.6666667 0.20000027
745 161.170852661 19.014084 2.0 0.20000024
744 161.170852661 19.71831 0.6666667 0.20000026
1459 161.170852661 49.295776 1.3333334 0.10000063
1460 161.170852661 49.295776 0.6666667 0.10000063
1467 161.170852661 48.59155 0.6666667 0.10000062
1466 161.170852661 48.59155 1.3333334 0.10000062
955 161.170852661 30.28169 0.6666667 3.8421567e-07
956 161.170852661 29.577465 2.0 3.7528042e-07
963 161.170852661 28.169014 1.3333334 3.574099e-07
962 161.170852661 28.169014 2.0 3.574099e-07
738 158.341079712 21.12676 0.6666667 0.20000027
739 158.341079712 20.422535 2.0 0.20000026
746 158.341079712 19.014084 1.3333334 0.20000024
745 158.341079712 19.014084 2.0 0.20000024
234 158.341079712 2.1126761 2.0 2.6805743e-08
235 158.341079712 2.1126761 1.3333334 2.6805743e-08
242 158.341079712 0.70422536 0.6666667 8.935248e-09
241 158.341079712 0.70422536 1.3333334 8.935248e-09
1460 158.341110229 49.295776 0.6666667 0.10000063
1461 158.341110229 49.295776 0.0 0.10000063
1468 158.341110229 48.59155 0.0 0.10000062
1467 158.341110229 48.59155 0.6666667 0.10000062
956 158.341110229 29.577465 2.0 3.7528042e-07
957 158.341110229 29.577465 1.3333334 3.7528042e-07
964 158.341110229 28.169014 0.6666667 3.574099e-07
963 158.341110229 28.169014 1.3333334 3.574099e-07
739 150.972763062 20.422535 2.0 0.20000026
740 150.972763062 20.422535 1.3333334 0.20000026
747 150.972763062 19.014084 0.6666667 0.20000024
746 150.972763062 19.014084 1.3333334 0.20000024
235 150.972763062 2.1126761 1.3333334 2.6805743e-08
236 150.972763062 2.1126761 0.6666667 2.6805743e-08
243 150.972763062 0.0 2.0 0.0
242 150.972763062 0.70422536 0.6666667 8.935248e-09
947 150.972793579 27.464788 0.0 0.20000035
948 150.972793579 26.760563 0.0 0.20000035
955 150.972793579 30.28169 0.6666667 3.8421567e-07
954 150.972793579 30.28169 1.3333334 3.8421567e-07
443 150.972793579 15.492958 -1.3333334 0.100000195
444 150.972793579 15.492958 -2.0 0.100000195
451 150.972793579 12.676056 -1.3333334 0.100000165
450 150.972793579 13.380281 -2.0 0.10000017
744 161.412139893 19.71831 0.6666667 0.20000026
745 161.412139893 19.014084 2.0 0.20000024
752 161.412139893 34.507042 -1.3333334 4.3782714e-07
751 161.412139893 35.21127 -2.0 4.467624e-07
240 161.412139893 0.70422536 2.0 8.935248e-09
241 161.412139893 0.70422536 1.3333334 8.935248e-09
248 161.412139893 6.338028 0.6666667 0.10000008
247 161.412139893 6.338028 1.3333334 0.10000008
942 161.412155151 29.577465 -0.6666667 0.20000038
943 161.412155151 28.87324 0.0 0.20000038
950 161.412155151 26.056337 -0.6666667 0.20000033
949 161.412155151 26.056337 0.0 0.20000033
438 161.412155151 17.605635 -2.0 0.100000225
439 161.412155151 16.90141 -1.3333334 0.10000022
446 161.412155151 14.788733 -2.0 0.10000019
445 161.412155151 14.788733 -1.3333334 0.10000019
1248 158.456893921 36.619717 0.6666667 4.6463285e-07
1249 158.456893921 42.957745 2.0 0.100000545
1256 158.456893921 41.549297 1.3333334 0.10000053
1255 158.456893921 41.549297 2.0 0.10000053
744 158.456893921 19.71831 0.6666667 0.20000026
745 158.456893921 19.014084 2.0 0.20000024
752 158.456893921 34.507042 -1.3333334 4.3782714e-07
751 158.456893921 35.21127 -2.0 4.467624e-07
1452 158.456893921 50.0 1.3333334 0.100000635
1453 158.456893921 50.0 0.6666667 0.100000635
1460 158.456893921 49.295776 0.6666667 0.10000063
1459 158.456893921 49.295776 1.3333334 0.10000063
948 158.456893921 26.760563 0.0 0.20000035
949 158.456893921 26.056337 0.0 0.20000033
956 158.456893921 29.577465 2.0 3.7528042e-07
955 158.456893921 30.28169 0.6666667 3.8421567e-07
745 149.081771851 19.014084 2.0 0.20000024
746 149.081771851 19.014084 1.3333334 0.20000024
753 149.081771851 34.507042 -2.0 4.3782714e-07
752 149.081771851 34.507042 -1.3333334 4.3782714e-07
241 149.081771851 0.70422536 1.3333334 8.935248e-09
242 149.081771851 0.70422536 0.6666667 8.935248e-09
249 149.081771851 5.633803 2.0 0.100000076
248 149.081771851 6.338028 0.6666667 0.10000008
1445 149.081726074 47.183098 1.3333334 5.986616e-07
1446 149.081726074 47.183098 0.6666667 5.986616e-07
1453 149.081726074 50.0 0.6666667 0.100000635
1452 149.081726074 50.0 1.3333334 0.100000635
941 149.081726074 29.577465 0.0 0.20000038
942 149.081726074 29.577465 -0.6666667 0.20000038
949 149.081726074 26.056337 0.0 0.20000033
948 149.081726074 26.760563 0.0 0.20000035
757 161.675613403 33.09859 -2.0 4.1995665e-07
758 161.675613403 32.394367 -1.3333334 4.110214e-07
765 161.675613403 30.28169 -2.0 3.8421567e-07
764 161.675613403 30.28169 -1.3333334 3.8421567e-07
253 161.675613403 4.9295774 1.3333334 0.10000006
254 161.675613403 4.9295774 0.6666667 0.10000006
261 161.675613403 2.8169014 2.0 0.10000004
260 161.675613403 3.5211267 0.6666667 0.100000046
1391 161.675613403 45.774647 0.0 0.20000058
1392 161.675613403 45.774647 -0.6666667 0.20000058
1399 161.675613403 45.070423 -0.6666667 0.20000057
1398 161.675613403 45.070423 0.0 0.20000057
887 161.675613403 25.352112 -0.6666667 3.2166892e-07
888 161.675613403 24.647888 0.0 3.1273368e-07
895 161.675613403 35.21127 -0.6666667 0.10000045
894 161.675613403 35.21127 0.0 0.10000045
1261 158.611434937 40.140846 2.0 0.10000051
1262 158.611434937 40.140846 1.3333334 0.10000051
1269 158.611434937 38.732395 0.6666667 0.10000049
1268 158.611434937 38.732395 1.3333334 0.10000049
757 158.611434937 33.09859 -2.0 4.1995665e-07
758 158.611434937 32.394367 -1.3333334 4.110214e-07
765 158.611434937 30.28169 -2.0 3.8421567e-07
764 158.611434937 30.28169 -1.3333334 3.8421567e-07
893 158.611450195 35.915493 -0.6666667 0.100000456
894 158.611450195 35.21127 0.0 0.10000045
901 158.611450195 33.09859 -0.6666667 0.10000042
900 158.611450195 33.09859 0.0 0.10000042
389 158.611450195 21.830986 -1.3333334 2.769927e-07
390 158.611450195 21.830986 -2.0 2.769927e-07
397 158.611450195 19.014084 -1.3333334 2.4125168e-07
396 158.611450195 19.71831 -2.0 2.5018693e-07
751 147.655441284 35.21127 -2.0 4.467624e-07
752 147.655441284 34.507042 -1.3333334 4.3782714e-07
759 147.655441284 32.394367 -2.0 4.110214e-07
758 147.655441284 32.394367 -1.3333334 4.110214e-07
247 147.655441284 6.338028 1.3333334 0.10000008
248 147.655441284 6.338028 0.6666667 0.10000008
255 147.655441284 4.2253523 2.0 0.10000005
254 147.655441284 4.9295774 0.6666667 0.10000006
894 147.655395508 35.21127 0.0 0.10000045
895 147.655395508 35.21127 -0.6666667 0.10000045
902 147.655395508 32.394367 0.0 0.10000041
901 147.655395508 33.09859 -0.6666667 0.10000042
390 147.655395508 21.830986 -2.0 2.769927e-07
391 147.655395508 21.12676 -1.3333334 2.6805742e-07
398 147.655395508 19.014084 -2.0 2.4125168e-07
397 147.655395508 19.014084 -1.3333334 2.4125168e-07
758 161.977767944 32.394367 -1.3333334 4.110214e-07
759 161.977767944 32.394367 -2.0 4.110214e-07
766 161.977767944 29.577465 -1.3333334 3.7528042e-07
765 161.977767944 30.28169 -2.0 3.8421567e-07
254 161.977767944 4.9295774 0.6666667 0.10000006
255 161.977767944 4.2253523 2.0 0.10000005
262 161.977767944 2.8169014 1.3333334 0.10000004
261 161.977767944 2.8169014 2.0 0.10000004
1405 161.977767944 44.366196 0.0 0.20000057
1406 161.977767944 44.366196 -0.6666667 0.20000057
1413 161.977767944 43.661972 -0.6666667 0.20000055
1412 161.977767944 43.661972 0.0 0.20000055
901 161.977767944 33.09859 -0.6666667 0.10000042
902 161.977767944 32.394367 0.0 0.10000041
909 161.977767944 30.28169 -0.6666667 0.10000039
908 161.977767944 30.28169 0.0 0.10000039
759 158.764678955 32.394367 -2.0 4.110214e-07
760 158.764678955 31.690142 -1.3333334 4.0208616e-07
767 158.764678955 29.577465 -2.0 3.7528042e-07
766 158.764678955 29.577465 -1.3333334 3.7528042e-07
255 158.764678955 4.2253523 2.0 0.10000005
256 158.764678955 4.2253523 1.3333334 0.10000005
263 158.764678955 2.8169014 0.6666667 0.10000004
262 158.764678955 2.8169014 1.3333334 0.10000004
907 158.764678955 30.985916 -0.6666667 0.1000004
908 158.764678955 30.28169 0.0 0.10000039
915 158.764678955 28.169014 -0.6666667 0.10000036
914 158.764678955 28.169014 0.0 0.10000036
403 158.764678955 16.90141 -1.3333334 2.1444595e-07
404 158.764678955 16.90141 -2.0 2.1444595e-07
411 158.764678955 14.084507 -1.3333334 1.7870495e-07
410 158.764678955 14.788733 -2.0 1.876402e-07
1145 145.265518188 36.619717 -1.3333334 4.6463285e-07
1146 145.265518188 36.619717 -2.0 4.6463285e-07
1153 145.265518188 42.25352 -1.3333334 0.10000054
1152 145.265518188 42.25352 -0.6666667 0.10000054
641 145.265518188 13.380281 1.3333334 0.10000017
642 145.265518188 13.380281 0.6666667 0.10000017
649 145.265518188 17.605635 1.3333334 0.20000023
648 145.265518188 17.605635 2.0 0.20000023
908 145.265533447 30.28169 0.0 0.10000039
909 145.265533447 30.28169 -0.6666667 0.10000039
916 145.265533447 27.464788 0.0 0.10000035
915 145.265533447 28.169014 -0.6666667 0.10000036
404 145.265533447 16.90141 -2.0 2.1444595e-07
405 145.265533447 16.197184 -1.3333334 2.055107e-07
412 145.265533447 14.084507 -2.0 1.7870495e-07
411 145.265533447 14.084507 -1.3333334 1.7870495e-07
1152 162.313369751 42.25352 -0.6666667 0.10000054
1153 162.313369751 42.25352 -1.3333334 0.10000054
1160 162.313369751 40.84507 -0.6666667 0.100000516
1159 162.313369751 40.84507 0.0 0.100000516
648 162.313369751 17.605635 2.0 0.20000023
649 162.313369751 17.605635 1.3333334 0.20000023
656 162.313369751 16.197184 0.6666667 0.20000021
655 162.313369751 16.197184 1.3333334 0.20000021
915 162.31338501 28.169014 -0.6666667 0.10000036
916 162.31338501 27.464788 0.0 0.10000035
923 162.31338501 36.619717 -0.6666667 0.20000046
922 162.31338501 36.619717 0.0 0.20000046
411 162.31338501 14.084507 -1.3333334 1.7870495e-07
412 162.31338501 14.084507 -2.0 1.7870495e-07
419 162.31338501 23.943663 -1.3333334 0.10000031
418 162.31338501 24.647888 -2.0 0.100000314
649 158.967697144 17.605635 1.3333334 0.20000023
650 158.967697144 17.605635 0.6666667 0.20000023
657 158.967697144 15.492958 2.0 0.2000002
656 158.967697144 16.197184 0.6666667 0.20000021
145 158.967697144 11.971831 0.0 0.10000015
146 158.967697144 11.971831 -0.6666667 0.10000015
153 158.967697144 9.154929 0.0 0.10000012
152 158.967697144 9.859155 -0.6666667 0.10000013
1419 158.967681885 50.0 -5.551115e-17 6.3440257e-07
1420 158.967681885 50.0 -0.6666667 6.3440257e-07
1427 158.967681885 49.295776 -0.6666667 6.2546735e-07
1426 158.967681885 49.295776 0.0 6.2546735e-07
915 158.967681885 28.169014 -0.6666667 0.10000036
916 158.967681885 27.464788 0.0 0.10000035
923 158.967681885 36.619717 -0.6666667 0.20000046
922 158.967681885 36.619717 0.0 0.20000046
1153 143.738983154 42.25352 -1.3333334 0.10000054
1154 143.738983154 42.25352 -2.0 0.10000054
1161 143.738983154 40.84507 -1.3333334 0.100000516
1160 143.738983154 40.84507 -0.6666667 0.100000516
649 143.738983154 17.605635 1.3333334 0.20000023
650 143.738983154 17.605635 0.6666667 0.20000023
657 143.738983154 15.492958 2.0 0.2000002
656 143.738983154 16.197184 0.6666667 0.20000021
921 143.739059448 25.352112 -0.6666667 0.10000032
922 143.739059448 36.619717 0.0 0.20000046
929 143.739059448 34.507042 -0.6666667 0.20000044
928 143.739059448 34.507042 0.0 0.20000044
417 143.739059448 24.647888 -1.3333334 0.100000314
418 143.739059448 24.647888 -2.0 0.100000314
425 143.739059448 21.830986 -1.3333334 0.10000028
424 143.739059448 22.535212 -2.0 0.100000285
1160 162.676834106 40.84507 -0.6666667 0.100000516
1161 162.676834106 40.84507 -1.3333334 0.100000516
1168 162.676834106 39.43662 -0.6666667 0.1000005
1167 162.676834106 39.43662 0.0 0.1000005
656 162.676834106 16.197184 0.6666667 0.20000021
657 162.676834106 15.492958 2.0 0.2000002
664 162.676834106 14.084507 1.3333334 0.20000018
663 162.676834106 14.084507 2.0 0.20000018
928 162.676818848 34.507042 0.0 0.20000044
929 162.676818848 34.507042 -0.6666667 0.20000044
936 162.676818848 31.690142 -0.6666667 0.2000004
935 162.676818848 31.690142 0.0 0.2000004
424 162.676818848 22.535212 -2.0 0.100000285
425 162.676818848 21.830986 -1.3333334 0.10000028
432 162.676818848 19.71831 -2.0 0.100000255
431 162.676818848 19.71831 -1.3333334 0.100000255
662 159.131866455 14.788733 0.6666667 0.2000002
663 159.131866455 14.084507 2.0 0.20000018
670 159.131866455 12.676056 1.3333334 0.20000017
669 159.131866455 12.676056 2.0 0.20000017
158 159.131866455 7.746479 -0.6666667 0.1000001
159 159.131866455 7.0422535 0.0 0.10000009
166 159.131866455 4.9295774 -0.6666667 0.10000006
165 159.131866455 4.9295774 0.0 0.10000006
1432 159.131896973 48.59155 0.6666667 6.165321e-07
1433 159.131896973 48.59155 0.0 6.165321e-07
1440 159.131896973 47.887325 0.0 6.0759686e-07
1439 159.131896973 47.887325 0.6666667 6.0759686e-07
928 159.131896973 34.507042 0.0 0.20000044
929 159.131896973 34.507042 -0.6666667 0.20000044
936 159.131896973 31.690142 -0.6666667 0.2000004
935 159.131896973 31.690142 0.0 0.2000004
1166 140.557540894 40.140846 -2.0 0.10000051
1167 140.557540894 39.43662 0.0 0.1000005
1174 140.557540894 38.732395 -2.0 0.10000049
1173 140.557540894 38.732395 -1.3333334 0.10000049
662 140.557540894 14.788733 0.6666667 0.2000002
663 140.557540894 14.084507 2.0 0.20000018
670 140.557540894 12.676056 1.3333334 0.20000017
669 140.557540894 12.676056 2.0 0.20000017
929 140.557556152 34.507042 -0.6666667 0.20000044
930 140.557556152 33.80282 0.0 0.20000044
937 140.557556152 30.985916 0.0 0.20000039
936 140.557556152 31.690142 -0.6666667 0.2000004
425 140.557556152 21.830986 -1.3333334 0.10000028
426 140.557556152 21.830986 -2.0 0.10000028
433 140.557556152 19.014084 -1.3333334 0.10000024
432 140.557556152 19.71831 -2.0 0.100000255
670 163.090576172 12.676056 1.3333334 0.20000017
671 163.090576172 23.943663 2.0 3.0379843e-07
678 163.090576172 22.535212 2.0 2.8592794e-07
677 163.090576172 23.239437 0.6666667 2.9486318e-07
166 163.090576172 4.9295774 -0.6666667 0.10000006
167 163.090576172 4.2253523 0.0 0.10000005
174 163.090576172 2.1126761 -0.6666667 0.10000003
173 163.090576172 2.1126761 0.0 0.10000003
936 163.090591431 31.690142 -0.6666667 0.2000004
937 163.090591431 30.985916 0.0 0.20000039
944 163.090591431 28.87324 -0.6666667 0.20000038
943 163.090591431 28.87324 0.0 0.20000038
432 163.090591431 19.71831 -2.0 0.100000255
433 163.090591431 19.014084 -1.3333334 0.10000024
440 163.090591431 16.90141 -2.0 0.10000022
439 163.090591431 16.90141 -1.3333334 0.10000022
1174 159.409744263 38.732395 -2.0 0.10000049
1175 159.409744263 38.028168 0.0 0.100000486
1182 159.409744263 37.323944 -2.0 0.10000047
1181 159.409744263 37.323944 -1.3333334 0.10000047
670 159.409744263 12.676056 1.3333334 0.20000017
671 159.409744263 23.943663 2.0 3.0379843e-07
678 159.409744263 22.535212 2.0 2.8592794e-07
677 159.409744263 23.239437 0.6666667 2.9486318e-07
1440 159.409744263 47.887325 0.0 6.0759686e-07
1441 159.409744263 47.887325 -0.6666667 6.0759686e-07
1448 159.409744263 47.183098 -0.6666667 5.986616e-07
1447 159.409744263 47.183098 0.0 5.986616e-07
936 159.409744263 31.690142 -0.6666667 0.2000004
937 159.409744263 30.985916 0.0 0.20000039
944 159.409744263 28.87324 -0.6666667 0.20000038
943 159.409744263 28.87324 0.0 0.20000038
676 138.880722046 23.239437 1.3333334 2.9486318e-07
677 138.880722046 23.239437 0.6666667 2.9486318e-07
684 138.880722046 21.12676 2.0 2.6805742e-07
683 138.880722046 21.830986 0.6666667 2.769927e-07
172 138.880722046 2.8169014 -0.6666667 0.10000004
173 138.880722046 2.1126761 0.0 0.10000003
180 138.880722046 -1.2688052e-09 -0.6666667 0.1
179 138.880722046 -1.2688052e-09 0.0 0.1
1446 138.880783081 47.183098 0.6666667 5.986616e-07
1447 138.880783081 47.183098 0.0 5.986616e-07
1454 138.880783081 50.0 -1.6653345e-16 0.100000635
1453 138.880783081 50.0 0.6666667 0.100000635
942 138.880783081 29.577465 -0.6666667 0.20000038
943 138.880783081 28.87324 0.0 0.20000038
950 138.880783081 26.056337 -0.6666667 0.20000033
949 138.880783081 26.056337 0.0 0.20000033
1187 163.467147827 42.25352 0.0 0.20000054
1188 163.467147827 42.25352 -0.6666667 0.20000054
1195 163.467147827 40.84507 0.0 0.20000052
1194 163.467147827 41.549297 -2.0 0.20000052
683 163.467147827 21.830986 0.6666667 2.769927e-07
684 163.467147827 21.12676 2.0 2.6805742e-07
691 163.467147827 19.71831 1.3333334 2.5018693e-07
690 163.467147827 19.71831 2.0 2.5018693e-07
1453 163.467163086 50.0 0.6666667 0.100000635
1454 163.467163086 50.0 -1.6653345e-16 0.100000635
1461 163.467163086 49.295776 0.0 0.10000063
1460 163.467163086 49.295776 0.6666667 0.10000063
949 163.467163086 26.056337 0.0 0.20000033
950 163.467163086 26.056337 -0.6666667 0.20000033
957 163.467163086 29.577465 1.3333334 3.7528042e-07
956 163.467163086 29.577465 2.0 3.7528042e-07
684 159.624130249 21.12676 2.0 2.6805742e-07
685 159.624130249 21.12676 1.3333334 2.6805742e-07
692 159.624130249 19.71831 0.6666667 2.5018693e-07
691 159.624130249 19.71831 1.3333334 2.5018693e-07
180 159.624130249 -1.2688052e-09 -0.6666667 0.1
181 159.624130249 11.971831 0.0 0.20000015
188 159.624130249 9.859155 -0.6666667 0.20000012
187 159.624130249 9.859155 0.0 0.20000012
950 159.624130249 26.056337 -0.6666667 0.20000033
951 159.624130249 25.352112 0.0 0.20000033
958 159.624130249 29.577465 0.6666667 3.7528042e-07
957 159.624130249 29.577465 1.3333334 3.7528042e-07
446 159.624130249 14.788733 -2.0 0.10000019
447 159.624130249 14.084507 -1.3333334 0.10000018
454 159.624130249 24.647888 -2.0 0.20000032
453 159.624130249 24.647888 -1.3333334 0.20000032
1188 134.522766113 42.25352 -0.6666667 0.20000054
1189 134.522766113 42.25352 -1.3333334 0.20000054
1196 134.522766113 40.84507 -0.6666667 0.20000052
1195 134.522766113 40.84507 0.0 0.20000052
684 134.522766113 21.12676 2.0 2.6805742e-07
685 134.522766113 21.12676 1.3333334 2.6805742e-07
692 134.522766113 19.71831 0.6666667 2.5018693e-07
691 134.522766113 19.71831 1.3333334 2.5018693e-07
1454 134.522583008 50.0 -1.6653345e-16 0.100000635
1455 134.522583008 50.0 -0.6666667 0.100000635
1462 134.522583008 49.295776 -0.6666667 0.10000063
1461 134.522583008 49.295776 0.0 0.10000063
950 134.522583008 26.056337 -0.6666667 0.20000033
951 134.522583008 25.352112 0.0 0.20000033
958 134.522583008 29.577465 0.6666667 3.7528042e-07
957 134.522583008 29.577465 1.3333334 3.7528042e-07
690 173.026596069 19.71831 2.0 2.5018693e-07
691 173.026596069 19.71831 1.3333334 2.5018693e-07
698 173.026596069 23.943663 2.0 0.10000031
697 173.026596069 24.647888 0.6666667 0.100000314
186 173.026596069 10.56338 -0.6666667 0.20000014
187 173.026596069 9.859155 0.0 0.20000012
194 173.026596069 7.746479 -0.6666667 0.2000001
193 173.026596069 7.746479 0.0 0.2000001
1194 170.939285278 41.549297 -2.0 0.20000052
1195 170.939285278 40.84507 0.0 0.20000052
1202 170.939285278 40.140846 -2.0 0.20000051
1201 170.939285278 40.140846 -1.3333334 0.20000051
690 170.939285278 19.71831 2.0 2.5018693e-07
691 170.939285278 19.71831 1.3333334 2.5018693e-07
698 170.939285278 23.943663 2.0 0.10000031
697 170.939285278 24.647888 0.6666667 0.100000314
956 173.026611328 29.577465 2.0 3.7528042e-07
957 173.026611328 29.577465 1.3333334 3.7528042e-07
964 173.026611328 28.169014 0.6666667 3.574099e-07
963 173.026611328 28.169014 1.3333334 3.574099e-07
452 173.026611328 12.676056 -2.0 0.100000165
453 173.026611328 24.647888 -1.3333334 0.20000032
460 173.026611328 22.535212 -2.0 0.20000029
459 173.026611328 22.535212 -1.3333334 0.20000029
1447 169.844970703 47.183098 0.0 5.986616e-07
1448 169.844970703 47.183098 -0.6666667 5.986616e-07
1455 169.844970703 50.0 -0.6666667 0.100000635
1454 169.844970703 50.0 -1.6653345e-16 0.100000635
943 169.844970703 28.87324 0.0 0.20000038
944 169.844970703 28.87324 -0.6666667 0.20000038
951 169.844970703 25.352112 0.0 0.20000033
950 169.844970703 26.056337 -0.6666667 0.20000033
957 170.939285278 29.577465 1.3333334 3.7528042e-07
958 170.939285278 29.577465 0.6666667 3.7528042e-07
965 170.939285278 27.464788 2.0 3.4847466e-07
964 170.939285278 28.169014 0.6666667 3.574099e-07
453 170.939285278 24.647888 -1.3333334 0.20000032
454 170.939285278 24.647888 -2.0 0.20000032
461 170.939285278 21.830986 -1.3333334 0.20000029
460 170.939285278 22.535212 -2.0 0.20000029
1202 174.051239014 40.140846 -2.0 0.20000051
1203 174.051239014 39.43662 0.0 0.20000051
1210 174.051239014 38.732395 -2.0 0.2000005
1209 174.051239014 38.732395 -1.3333334 0.2000005
698 174.051239014 23.943663 2.0 0.10000031
699 174.051239014 23.943663 1.3333334 0.10000031
706 174.051239014 22.535212 0.6666667 0.100000285
705 174.051239014 22.535212 1.3333334 0.100000285
704 171.979553223 22.535212 2.0 0.100000285
705 171.979553223 22.535212 1.3333334 0.100000285
712 171.979553223 21.12676 0.6666667 0.10000027
711 171.979553223 21.12676 1.3333334 0.10000027
200 171.979553223 5.633803 -0.6666667 0.20000008
201 171.979553223 4.9295774 0.0 0.20000006
208 171.979553223 2.8169014 -0.6666667 0.20000003
207 171.979553223 2.8169014 0.0 0.20000003
1468 174.051239014 48.59155 0.0 0.10000062
1469 174.051239014 48.59155 -0.6666667 0.10000062
1476 174.051239014 47.887325 -0.6666667 0.100000605
1475 174.051239014 47.887325 0.0 0.100000605
964 174.051239014 28.169014 0.6666667 3.574099e-07
965 174.051239014 27.464788 2.0 3.4847466e-07
972 174.051239014 26.056337 1.3333334 3.3060417e-07
971 174.051239014 26.056337 2.0 3.3060417e-07
1474 171.979553223 47.887325 0.6666667 0.100000605
1475 171.979553223 47.887325 0.0 0.100000605
1482 171.979553223 50.0 2.0 0.20000064
1481 171.979553223 47.183098 -2.0 0.1000006
970 171.979553223 26.760563 0.6666667 3.395394e-07
971 171.979553223 26.056337 2.0 3.3060417e-07
978 171.979553223 24.647888 1.3333334 3.1273368e-07
977 171.979553223 24.647888 2.0 3.1273368e-07
691 167.094909668 19.71831 1.3333334 2.5018693e-07
692 167.094909668 19.71831 0.6666667 2.5018693e-07
699 167.094909668 23.943663 1.3333334 0.10000031
698 167.094909668 23.943663 2.0 0.10000031
187 167.094909668 9.859155 0.0 0.20000012
188 167.094909668 9.859155 -0.6666667 0.20000012
195 167.094909668 7.0422535 0.0 0.20000009
194 167.094909668 7.746479 -0.6666667 0.2000001
1461 167.09487915 49.295776 0.0 0.10000063
1462 167.09487915 49.295776 -0.6666667 0.10000063
1469 167.09487915 48.59155 -0.6666667 0.10000062
1468 167.09487915 48.59155 0.0 0.10000062
957 167.09487915 29.577465 1.3333334 3.7528042e-07
958 167.09487915 29.577465 0.6666667 3.7528042e-07
965 167.09487915 27.464788 2.0 3.4847466e-07
964 167.09487915 28.169014 0.6666667 3.574099e-07
705 168.260559082 22.535212 1.3333334 0.100000285
706 168.260559082 22.535212 0.6666667 0.100000285
713 168.260559082 20.422535 2.0 0.10000026
712 168.260559082 21.12676 0.6666667 0.10000027
201 168.260559082 4.9295774 0.0 0.20000006
202 168.260559082 4.9295774 -0.6666667 0.20000006
209 168.260559082 2.1126761 0.0 0.20000003
208 168.260559082 2.8169014 -0.6666667 0.20000003
971 168.260543823 26.056337 2.0 3.3060417e-07
972 168.260543823 26.056337 1.3333334 3.3060417e-07
979 168.260543823 24.647888 0.6666667 3.1273368e-07
978 168.260543823 24.647888 1.3333334 3.1273368e-07
467 168.260543823 19.71831 -1.3333334 0.20000026
468 168.260543823 19.71831 -2.0 0.20000026
475 168.260543823 16.90141 -1.3333334 0.20000021
474 168.260543823 17.605635 -2.0 0.20000023
712 175.465438843 21.12676 0.6666667 0.10000027
713 175.465438843 20.422535 2.0 0.10000026
720 175.465438843 19.014084 1.3333334 0.10000024
719 175.465438843 19.014084 2.0 0.10000024
208 175.465438843 2.8169014 -0.6666667 0.20000003
209 175.465438843 2.1126761 0.0 0.20000003
216 175.465438843 -2.5376103e-09 -0.6666667 0.2
215 175.465438843 -2.5376103e-09 0.0 0.2
1216 173.20741272 37.323944 -0.6666667 0.20000048
1217 173.20741272 37.323944 -1.3333334 0.20000048
1224 173.20741272 42.25352 0.6666667 5.3611484e-07
1223 173.20741272 42.25352 1.3333334 5.3611484e-07
712 173.20741272 21.12676 0.6666667 0.10000027
713 173.20741272 20.422535 2.0 0.10000026
720 173.20741272 19.014084 1.3333334 0.10000024
719 173.20741272 19.014084 2.0 0.10000024
978 175.465438843 24.647888 1.3333334 3.1273368e-07
979 175.465438843 24.647888 0.6666667 3.1273368e-07
986 175.465438843 28.87324 2.0 0.10000037
985 175.465438843 29.577465 0.6666667 0.100000374
474 175.465438843 17.605635 -2.0 0.20000023
475 175.465438843 16.90141 -1.3333334 0.20000021
482 175.465438843 14.788733 -2.0 0.2000002
481 175.465438843 14.788733 -1.3333334 0.2000002
1482 173.207427979 50.0 2.0 0.20000064
1483 173.207427979 50.0 1.3333334 0.20000064
1490 173.207427979 49.295776 1.3333334 0.20000063
1489 173.207427979 49.295776 2.0 0.20000063
978 173.207427979 24.647888 1.3333334 3.1273368e-07
979 173.207427979 24.647888 0.6666667 3.1273368e-07
986 173.207427979 28.87324 2.0 0.10000037
985 173.207427979 29.577465 0.6666667 0.100000374
718 170.217971802 19.71831 0.6666667 0.100000255
719 170.217971802 19.014084 2.0 0.10000024
726 170.217971802 23.943663 0.6666667 0.2000003
725 170.217971802 23.943663 1.3333334 0.2000003
214 170.217971802 0.70422536 -0.6666667 0.20000002
215 170.217971802 -2.5376103e-09 0.0 0.2
222 170.217971802 4.9295774 2.0 6.254673e-08
221 170.217971802 5.633803 0.6666667 7.1481985e-08
984 170.217971802 29.577465 1.3333334 0.100000374
985 170.217971802 29.577465 0.6666667 0.100000374
992 170.217971802 27.464788 2.0 0.10000035
991 170.217971802 28.169014 0.6666667 0.10000036
480 170.217971802 15.492958 -2.0 0.2000002
481 170.217971802 14.788733 -1.3333334 0.2000002
488 170.217971802 12.676056 -2.0 0.20000017
487 170.217971802 12.676056 -1.3333334 0.20000017
1195 163.915481567 40.84507 0.0 0.20000052
1196 163.915481567 40.84507 -0.6666667 0.20000052
1203 163.915481567 39.43662 0.0 0.20000051
1202 163.915481567 40.140846 -2.0 0.20000051
691 163.915481567 19.71831 1.3333334 2.5018693e-07
692 163.915481567 19.71831 0.6666667 2.5018693e-07
699 163.915481567 23.943663 1.3333334 0.10000031
698 163.915481567 23.943663 2.0 0.10000031
963 163.915481567 28.169014 1.3333334 3.574099e-07
964 163.915481567 28.169014 0.6666667 3.574099e-07
971 163.915481567 26.056337 2.0 3.3060417e-07
970 163.915481567 26.760563 0.6666667 3.395394e-07
459 163.915481567 22.535212 -1.3333334 0.20000029
460 163.915481567 22.535212 -2.0 0.20000029
467 163.915481567 19.71831 -1.3333334 0.20000026
466 163.915481567 20.422535 -2.0 0.20000026
1209 164.4168396 38.732395 -1.3333334 0.2000005
1210 164.4168396 38.732395 -2.0 0.2000005
1217 164.4168396 37.323944 -1.3333334 0.20000048
1216 164.4168396 37.323944 -0.6666667 0.20000048
705 164.4168396 22.535212 1.3333334 0.100000285
706 164.4168396 22.535212 0.6666667 0.100000285
713 164.4168396 20.422535 2.0 0.10000026
712 164.4168396 21.12676 0.6666667 0.10000027
1475 164.416824341 47.887325 0.0 0.100000605
1476 164.416824341 47.887325 -0.6666667 0.100000605
1483 164.416824341 50.0 1.3333334 0.20000064
1482 164.416824341 50.0 2.0 0.20000064
971 164.416824341 26.056337 2.0 3.3060417e-07
972 164.416824341 26.056337 1.3333334 3.3060417e-07
979 164.416824341 24.647888 0.6666667 3.1273368e-07
978 164.416824341 24.647888 1.3333334 3.1273368e-07
1222 165.3046875 42.25352 2.0 5.3611484e-07
1223 165.3046875 42.25352 1.3333334 5.3611484e-07
1230 165.3046875 40.84507 0.6666667 5.1824435e-07
1229 165.3046875 40.84507 1.3333334 5.1824435e-07
718 165.3046875 19.71831 0.6666667 0.100000255
719 165.3046875 19.014084 2.0 0.10000024
726 165.3046875 23.943663 0.6666667 0.2000003
725 165.3046875 23.943663 1.3333334 0.2000003
1488 165.3046875 50.0 -2.0 0.20000064
1489 165.3046875 49.295776 2.0 0.20000063
1496 165.3046875 48.59155 2.0 0.20000061
1495 165.3046875 49.295776 -2.0 0.20000063
984 165.3046875 29.577465 1.3333334 0.100000374
985 165.3046875 29.577465 0.6666667 0.100000374
992 165.3046875 27.464788 2.0 0.10000035
991 165.3046875 28.169014 0.6666667 0.10000036
725 176.712905884 23.943663 1.3333334 0.2000003
726 176.712905884 23.943663 0.6666667 0.2000003
733 176.712905884 21.830986 2.0 0.20000029
732 176.712905884 22.535212 0.6666667 0.20000029
221 176.712905884 5.633803 0.6666667 7.1481985e-08
222 176.712905884 4.9295774 2.0 6.254673e-08
229 176.712905884 3.5211267 1.3333334 4.4676238e-08
228 176.712905884 3.5211267 2.0 4.4676238e-08
726 174.554382324 23.943663 0.6666667 0.2000003
727 174.554382324 23.239437 2.0 0.2000003
734 174.554382324 21.830986 1.3333334 0.20000029
733 174.554382324 21.830986 2.0 0.20000029
222 174.554382324 4.9295774 2.0 6.254673e-08
223 174.554382324 4.9295774 1.3333334 6.254673e-08
230 174.554382324 3.5211267 0.6666667 4.4676238e-08
229 174.554382324 3.5211267 1.3333334 4.4676238e-08
991 176.712905884 28.169014 0.6666667 0.10000036
992 176.712905884 27.464788 2.0 0.10000035
999 176.712905884 26.056337 1.3333334 0.10000033
998 176.712905884 26.056337 2.0 0.10000033
487 176.712905884 12.676056 -1.3333334 0.20000017
488 176.712905884 12.676056 -2.0 0.20000017
495 176.712905884 21.830986 -0.6666667 2.769927e-07
494 176.712905884 21.830986 0.0 2.769927e-07
998 174.554382324 26.056337 2.0 0.10000033
999 174.554382324 26.056337 1.3333334 0.10000033
1006 174.554382324 30.28169 1.3333334 0.20000039
1005 174.554382324 30.28169 2.0 0.20000039
494 174.554382324 21.830986 0.0 2.769927e-07
495 174.554382324 21.830986 -0.6666667 2.769927e-07
502 174.554382324 19.014084 0.0 2.4125168e-07
501 174.554382324 19.71831 -0.6666667 2.5018693e-07
1229 171.908782959 40.84507 1.3333334 5.1824435e-07
1230 171.908782959 40.84507 0.6666667 5.1824435e-07
1237 171.908782959 38.732395 2.0 4.9143864e-07
1236 171.908782959 39.43662 0.6666667 5.0037386e-07
725 171.908782959 23.943663 1.3333334 0.2000003
726 171.908782959 23.943663 0.6666667 0.2000003
733 171.908782959 21.830986 2.0 0.20000029
732 171.908782959 22.535212 0.6666667 0.20000029
1495 171.908782959 49.295776 -2.0 0.20000063
1496 171.908782959 48.59155 2.0 0.20000061
1503 171.908782959 47.887325 2.0 0.20000061
1502 171.908782959 48.59155 -2.0 0.20000061
991 171.908782959 28.169014 0.6666667 0.10000036
992 171.908782959 27.464788 2.0 0.10000035
999 171.908782959 26.056337 1.3333334 0.10000033
998 171.908782959 26.056337 2.0 0.10000033
1230 166.63192749 40.84507 0.6666667 5.1824435e-07
1231 166.63192749 40.140846 2.0 5.0930913e-07
1238 166.63192749 38.732395 1.3333334 4.9143864e-07
1237 166.63192749 38.732395 2.0 4.9143864e-07
726 166.63192749 23.943663 0.6666667 0.2000003
727 166.63192749 23.239437 2.0 0.2000003
734 166.63192749 21.830986 1.3333334 0.20000029
733 166.63192749 21.830986 2.0 0.20000029
1502 166.631942749 48.59155 -2.0 0.20000061
1503 166.631942749 47.887325 2.0 0.20000061
1510 166.631942749 47.183098 -0.6666667 0.2000006
1509 166.631942749 47.887325 -2.0 0.20000061
998 166.631942749 26.056337 2.0 0.10000033
999 166.631942749 26.056337 1.3333334 0.10000033
1006 166.631942749 30.28169 1.3333334 0.20000039
1005 166.631942749 30.28169 2.0 0.20000039
1201 159.963241577 40.140846 -1.3333334 0.20000051
1202 159.963241577 40.140846 -2.0 0.20000051
1209 159.963241577 38.732395 -1.3333334 0.2000005
1208 159.963241577 38.732395 -0.6666667 0.2000005
697 159.963241577 24.647888 0.6666667 0.100000314
698 159.963241577 23.943663 2.0 0.10000031
705 159.963241577 22.535212 1.3333334 0.100000285
704 159.963241577 22.535212 2.0 0.100000285
1467 159.963241577 48.59155 0.6666667 0.10000062
1468 159.963241577 48.59155 0.0 0.10000062
1475 159.963241577 47.887325 0.0 0.100000605
1474 159.963241577 47.887325 0.6666667 0.100000605
963 159.963241577 28.169014 1.3333334 3.574099e-07
964 159.963241577 28.169014 0.6666667 3.574099e-07
971 159.963241577 26.056337 2.0 3.3060417e-07
970 159.963241577 26.760563 0.6666667 3.395394e-07
711 160.170623779 21.12676 1.3333334 0.10000027
712 160.170623779 21.12676 0.6666667 0.10000027
719 160.170623779 19.014084 2.0 0.10000024
718 160.170623779 19.71831 0.6666667 0.100000255
207 160.170623779 2.8169014 0.0 0.20000003
208 160.170623779 2.8169014 -0.6666667 0.20000003
215 160.170623779 -2.5376103e-09 0.0 0.2
214 160.170623779 0.70422536 -0.6666667 0.20000002
977 160.170608521 24.647888 2.0 3.1273368e-07
978 160.170608521 24.647888 1.3333334 3.1273368e-07
985 160.170608521 29.577465 0.6666667 0.100000374
984 160.170608521 29.577465 1.3333334 0.100000374
473 160.170608521 17.605635 -1.3333334 0.20000023
474 160.170608521 17.605635 -2.0 0.20000023
481 160.170608521 14.788733 -1.3333334 0.2000002
480 160.170608521 15.492958 -2.0 0.2000002
719 160.653701782 19.014084 2.0 0.10000024
720 160.653701782 19.014084 1.3333334 0.10000024
727 160.653701782 23.239437 2.0 0.2000003
726 160.653701782 23.943663 0.6666667 0.2000003
215 160.653701782 -2.5376103e-09 0.0 0.2
216 160.653701782 -2.5376103e-09 -0.6666667 0.2
223 160.653701782 4.9295774 1.3333334 6.254673e-08
222 160.653701782 4.9295774 2.0 6.254673e-08
985 160.653717041 29.577465 0.6666667 0.100000374
986 160.653717041 28.87324 2.0 0.10000037
993 160.653717041 27.464788 1.3333334 0.10000035
992 160.653717041 27.464788 2.0 0.10000035
481 160.653717041 14.788733 -1.3333334 0.2000002
482 160.653717041 14.788733 -2.0 0.2000002
489 160.653717041 23.943663 -0.6666667 3.0379843e-07
488 160.653717041 12.676056 -2.0 0.20000017
732 161.285644531 22.535212 0.6666667 0.20000029
733 161.285644531 21.830986 2.0 0.20000029
740 161.285644531 20.422535 1.3333334 0.20000026
739 161.285644531 20.422535 2.0 0.20000026
228 161.285644531 3.5211267 2.0 4.4676238e-08
229 161.285644531 3.5211267 1.3333334 4.4676238e-08
236 161.285644531 2.1126761 0.6666667 2.6805743e-08
235 161.285644531 2.1126761 1.3333334 2.6805743e-08
992 161.285629272 27.464788 2.0 0.10000035
993 161.285629272 27.464788 1.3333334 0.10000035
1000 161.285629272 26.056337 0.6666667 0.10000033
999 161.285629272 26.056337 1.3333334 0.10000033
488 161.285629272 12.676056 -2.0 0.20000017
489 161.285629272 23.943663 -0.6666667 3.0379843e-07
496 161.285629272 21.12676 0.0 2.6805742e-07
495 161.285629272 21.830986 -0.6666667 2.769927e-07
1236 178.237976074 39.43662 0.6666667 5.0037386e-07
1237 178.237976074 38.732395 2.0 4.9143864e-07
1244 178.237976074 37.323944 1.3333334 4.7356812e-07
1243 178.237976074 37.323944 2.0 4.7356812e-07
732 178.237976074 22.535212 0.6666667 0.20000029
733 178.237976074 21.830986 2.0 0.20000029
740 178.237976074 20.422535 1.3333334 0.20000026
739 178.237976074 20.422535 2.0 0.20000026
1243 176.076095581 37.323944 2.0 4.7356812e-07
1244 176.076095581 37.323944 1.3333334 4.7356812e-07
1251 176.076095581 42.957745 0.6666667 0.100000545
1250 176.076095581 42.957745 1.3333334 0.100000545
739 176.076095581 20.422535 2.0 0.20000026
740 176.076095581 20.422535 1.3333334 0.20000026
747 176.076095581 19.014084 0.6666667 0.20000024
746 176.076095581 19.014084 1.3333334 0.20000024
1496 178.238006592 48.59155 2.0 0.20000061
1497 178.238006592 48.59155 1.3333334 0.20000061
1504 178.238006592 47.887325 1.3333334 0.20000061
1503 178.238006592 47.887325 2.0 0.20000061
992 178.238006592 27.464788 2.0 0.10000035
993 178.238006592 27.464788 1.3333334 0.10000035
1000 178.238006592 26.056337 0.6666667 0.10000033
999 178.238006592 26.056337 1.3333334 0.10000033
1503 176.07611084 47.887325 2.0 0.20000061
1504 176.07611084 47.887325 1.3333334 0.20000061
1511 176.07611084 47.183098 -1.3333334 0.2000006
1510 176.07611084 47.183098 -0.6666667 0.2000006
999 176.07611084 26.056337 1.3333334 0.10000033
1000 176.07611084 26.056337 0.6666667 0.10000033
1007 176.07611084 30.28169 0.6666667 0.20000039
1006 176.07611084 30.28169 1.3333334 0.20000039
740 173.583145142 20.422535 1.3333334 0.20000026
741 173.583145142 20.422535 0.6666667 0.20000026
748 173.583145142 35.915493 -1.3333334 4.5569763e-07
747 173.583145142 19.014084 0.6666667 0.20000024
236 173.583145142 2.1126761 0.6666667 2.6805743e-08
237 173.583145142 1.4084507 2.0 1.7870496e-08
244 173.583145142 0.0 1.3333334 0.0
243 173.583145142 0.0 2.0 0.0
1000 173.583145142 26.056337 0.6666667 0.10000033
1001 173.583145142 25.352112 2.0 0.10000032
1008 173.583145142 29.577465 2.0 0.20000038
1007 173.583145142 30.28169 0.6666667 0.20000039
496 173.583145142 21.12676 0.0 2.6805742e-07
497 173.583145142 21.12676 -0.6666667 2.6805742e-07
504 173.583145142 18.309858 0.0 2.3231642e-07
503 173.583145142 19.014084 -0.6666667 2.4125168e-07
1244 169.596191406 37.323944 1.3333334 4.7356812e-07
1245 169.596191406 37.323944 0.6666667 4.7356812e-07
1252 169.596191406 42.25352 2.0 0.10000054
1251 169.596191406 42.957745 0.6666667 0.100000545
740 169.596191406 20.422535 1.3333334 0.20000026
741 169.596191406 20.422535 0.6666667 0.20000026
748 169.596191406 35.915493 -1.3333334 4.5569763e-07
747 169.596191406 19.014084 0.6666667 0.20000024
1504 169.596191406 47.887325 1.3333334 0.20000061
1505 169.596191406 47.887325 0.6666667 0.20000061
1512 169.596191406 47.183098 -2.0 0.2000006
1511 169.596191406 47.183098 -1.3333334 0.2000006
1000 169.596191406 26.056337 0.6666667 0.10000033
1001 169.596191406 25.352112 2.0 0.10000032
1008 169.596191406 29.577465 2.0 0.20000038
1007 169.596191406 30.28169 0.6666667 0.20000039
746 162.889221191 19.014084 1.3333334 0.20000024
747 162.889221191 19.014084 0.6666667 0.20000024
754 162.889221191 33.80282 -1.3333334 4.2889192e-07
753 162.889221191 34.507042 -2.0 4.3782714e-07
242 162.889221191 0.70422536 0.6666667 8.935248e-09
243 162.889221191 0.0 2.0 0.0
250 162.889221191 5.633803 1.3333334 0.100000076
249 162.889221191 5.633803 2.0 0.100000076
993 162.88923645 27.464788 1.3333334 0.10000035
994 162.88923645 27.464788 0.6666667 0.10000035
1001 162.88923645 25.352112 2.0 0.10000032
1000 162.88923645 26.056337 0.6666667 0.10000033
489 162.88923645 23.943663 -0.6666667 3.0379843e-07
490 162.88923645 23.239437 0.0 2.9486318e-07
497 162.88923645 21.12676 -0.6666667 2.6805742e-07
496 162.88923645 21.12676 0.0 2.6805742e-07
698 132.725189209 23.943663 2.0 0.10000031
699 132.725189209 23.943663 1.3333334 0.10000031
706 132.725189209 22.535212 0.6666667 0.100000285
705 132.725189209 22.535212 1.3333334 0.100000285
194 132.725189209 7.746479 -0.6666667 0.2000001
195 132.725189209 7.0422535 0.0 0.20000009
202 132.725189209 4.9295774 -0.6666667 0.20000006
201 132.725189209 4.9295774 0.0 0.20000006
964 132.725326538 28.169014 0.6666667 3.574099e-07
965 132.725326538 27.464788 2.0 3.4847466e-07
972 132.725326538 26.056337 1.3333334 3.3060417e-07
971 132.725326538 26.056337 2.0 3.3060417e-07
460 132.725326538 22.535212 -2.0 0.20000029
461 132.725326538 21.830986 -1.3333334 0.20000029
468 132.725326538 19.71831 -2.0 0.20000026
467 132.725326538 19.71831 -1.3333334 0.20000026
1215 127.381156921 37.323944 0.0 0.20000048
1216 127.381156921 37.323944 -0.6666667 0.20000048
1223 127.381156921 42.25352 1.3333334 5.3611484e-07
1222 127.381156921 42.25352 2.0 5.3611484e-07
711 127.381156921 21.12676 1.3333334 0.10000027
712 127.381156921 21.12676 0.6666667 0.10000027
719 127.381156921 19.014084 2.0 0.10000024
718 127.381156921 19.71831 0.6666667 0.100000255
1481 127.38117981 47.183098 -2.0 0.1000006
1482 127.38117981 50.0 2.0 0.20000064
1489 127.38117981 49.295776 2.0 0.20000063
1488 127.38117981 50.0 -2.0 0.20000064
977 127.38117981 24.647888 2.0 3.1273368e-07
978 127.38117981 24.647888 1.3333334 3.1273368e-07
985 127.38117981 29.577465 0.6666667 0.100000374
984 127.38117981 29.577465 1.3333334 0.100000374
1223 126.314865112 42.25352 1.3333334 5.3611484e-07
1224 126.314865112 42.25352 0.6666667 5.3611484e-07
1231 126.314865112 40.140846 2.0 5.0930913e-07
1230 126.314865112 40.84507 0.6666667 5.1824435e-07
719 126.314865112 19.014084 2.0 0.10000024
720 126.314865112 19.014084 1.3333334 0.10000024
727 126.314865112 23.239437 2.0 0.2000003
726 126.314865112 23.943663 0.6666667 0.2000003
1489 126.31464386 49.295776 2.0 0.20000063
1490 126.31464386 49.295776 1.3333334 0.20000063
1497 126.31464386 48.59155 1.3333334 0.20000061
1496 126.31464386 48.59155 2.0 0.20000061
985 126.31464386 29.577465 0.6666667 0.100000374
986 126.31464386 28.87324 2.0 0.10000037
993 126.31464386 27.464788 1.3333334 0.10000035
992 126.31464386 27.464788 2.0 0.10000035
733 119.675773621 21.830986 2.0 0.20000029
734 119.675773621 21.830986 1.3333334 0.20000029
741 119.675773621 20.422535 0.6666667 0.20000026
740 119.675773621 20.422535 1.3333334 0.20000026
229 119.675773621 3.5211267 1.3333334 4.4676238e-08
230 119.675773621 3.5211267 0.6666667 4.4676238e-08
237 119.675773621 1.4084507 2.0 1.7870496e-08
236 119.675773621 2.1126761 0.6666667 2.6805743e-08
999 119.676048279 26.056337 1.3333334 0.10000033
1000 119.676048279 26.056337 0.6666667 0.10000033
1007 119.676048279 30.28169 0.6666667 0.20000039
1006 119.676048279 30.28169 1.3333334 0.20000039
495 119.676048279 21.830986 -0.6666667 2.769927e-07
496 119.676048279 21.12676 0.0 2.6805742e-07
503 119.676048279 19.014084 -0.6666667 2.4125168e-07
502 119.676048279 19.014084 0.0 2.4125168e-07
1250 118.282752991 42.957745 1.3333334 0.100000545
1251 118.282752991 42.957745 0.6666667 0.100000545
1258 118.282752991 40.84507 2.0 0.100000516
1257 118.282752991 41.549297 0.6666667 0.10000053
746 118.282752991 19.014084 1.3333334 0.20000024
747 118.282752991 19.014084 0.6666667 0.20000024
754 118.282752991 33.80282 -1.3333334 4.2889192e-07
753 118.282752991 34.507042 -2.0 4.3782714e-07
1497 118.282463074 48.59155 1.3333334 0.20000061
1498 118.282463074 48.59155 0.6666667 0.20000061
1505 118.282463074 47.887325 0.6666667 0.20000061
1504 118.282463074 47.887325 1.3333334 0.20000061
993 118.282463074 27.464788 1.3333334 0.10000035
994 118.282463074 27.464788 0.6666667 0.10000035
1001 118.282463074 25.352112 2.0 0.10000032
1000 118.282463074 26.056337 0.6666667 0.10000033
754 171.945861816 33.80282 -1.3333334 4.2889192e-07
755 171.945861816 33.80282 -2.0 4.2889192e-07
762 171.945861816 30.985916 -1.3333334 3.931509e-07
761 171.945861816 31.690142 -2.0 4.0208616e-07
250 171.945861816 5.633803 1.3333334 0.100000076
251 171.945861816 5.633803 0.6666667 0.100000076
258 171.945861816 3.5211267 2.0 0.100000046
257 171.945861816 4.2253523 0.6666667 0.10000005
761 107.171722412 31.690142 -2.0 4.0208616e-07
762 107.171722412 30.985916 -1.3333334 3.931509e-07
769 107.171722412 28.87324 -2.0 3.6634515e-07
768 107.171722412 28.87324 -1.3333334 3.6634515e-07
257 107.171722412 4.2253523 0.6666667 0.10000005
258 107.171722412 3.5211267 2.0 0.100000046
265 107.171722412 2.1126761 1.3333334 0.10000003
264 107.171722412 2.1126761 2.0 0.10000003
747 178.451171875 19.014084 0.6666667 0.20000024
748 178.451171875 35.915493 -1.3333334 4.5569763e-07
755 178.451171875 33.80282 -2.0 4.2889192e-07
754 178.451171875 33.80282 -1.3333334 4.2889192e-07
243 178.451171875 0.0 2.0 0.0
244 178.451171875 0.0 1.3333334 0.0
251 178.451171875 5.633803 0.6666667 0.100000076
250 178.451171875 5.633803 1.3333334 0.100000076
1251 177.063858032 42.957745 0.6666667 0.100000545
1252 177.063858032 42.25352 2.0 0.10000054
1259 177.063858032 40.84507 1.3333334 0.100000516
1258 177.063858032 40.84507 2.0 0.100000516
747 177.063858032 19.014084 0.6666667 0.20000024
748 177.063858032 35.915493 -1.3333334 4.5569763e-07
755 177.063858032 33.80282 -2.0 4.2889192e-07
754 177.063858032 33.80282 -1.3333334 4.2889192e-07
986 178.451171875 28.87324 2.0 0.10000037
987 178.451171875 28.87324 1.3333334 0.10000037
994 178.451171875 27.464788 0.6666667 0.10000035
993 178.451171875 27.464788 1.3333334 0.10000035
482 178.451171875 14.788733 -2.0 0.2000002
483 178.451171875 14.084507 -1.3333334 0.20000018
490 178.451171875 23.239437 0.0 2.9486318e-07
489 178.451171875 23.943663 -0.6666667 3.0379843e-07
1490 177.063858032 49.295776 1.3333334 0.20000063
1491 177.063858032 49.295776 0.6666667 0.20000063
1498 177.063858032 48.59155 0.6666667 0.20000061
1497 177.063858032 48.59155 1.3333334 0.20000061
986 177.063858032 28.87324 2.0 0.10000037
987 177.063858032 28.87324 1.3333334 0.10000037
994 177.063858032 27.464788 0.6666667 0.10000035
993 177.063858032 27.464788 1.3333334 0.10000035
1257 179.183227539 41.549297 0.6666667 0.10000053
1258 179.183227539 40.84507 2.0 0.100000516
1265 179.183227539 39.43662 1.3333334 0.1000005
1264 179.183227539 39.43662 2.0 0.1000005
753 179.183227539 34.507042 -2.0 4.3782714e-07
754 179.183227539 33.80282 -1.3333334 4.2889192e-07
761 179.183227539 31.690142 -2.0 4.0208616e-07
760 179.183227539 31.690142 -1.3333334 4.0208616e-07
1258 177.855102539 40.84507 2.0 0.100000516
1259 177.855102539 40.84507 1.3333334 0.100000516
1266 177.855102539 39.43662 0.6666667 0.1000005
1265 177.855102539 39.43662 1.3333334 0.1000005
754 177.855102539 33.80282 -1.3333334 4.2889192e-07
755 177.855102539 33.80282 -2.0 4.2889192e-07
762 177.855102539 30.985916 -1.3333334 3.931509e-07
761 177.855102539 31.690142 -2.0 4.0208616e-07
965 179.183227539 27.464788 2.0 3.4847466e-07
966 179.183227539 27.464788 1.3333334 3.4847466e-07
973 179.183227539 26.056337 0.6666667 3.3060417e-07
972 179.183227539 26.056337 1.3333334 3.3060417e-07
461 179.183227539 21.830986 -1.3333334 0.20000029
462 179.183227539 21.830986 -2.0 0.20000029
469 179.183227539 19.014084 -1.3333334 0.20000024
468 179.183227539 19.71831 -2.0 0.20000026
1469 177.855117798 48.59155 -0.6666667 0.10000062
1470 177.855117798 48.59155 -1.3333334 0.10000062
1477 177.855117798 47.887325 -1.3333334 0.100000605
1476 177.855117798 47.887325 -0.6666667 0.100000605
965 177.855117798 27.464788 2.0 3.4847466e-07
966 177.855117798 27.464788 1.3333334 3.4847466e-07
973 177.855117798 26.056337 0.6666667 3.3060417e-07
972 177.855117798 26.056337 1.3333334 3.3060417e-07
753 175.023178101 34.507042 -2.0 4.3782714e-07
754 175.023178101 33.80282 -1.3333334 4.2889192e-07
761 175.023178101 31.690142 -2.0 4.0208616e-07
760 175.023178101 31.690142 -1.3333334 4.0208616e-07
249 175.023178101 5.633803 2.0 0.100000076
250 175.023178101 5.633803 1.3333334 0.100000076
257 175.023178101 4.2253523 0.6666667 0.10000005
256 175.023178101 4.2253523 1.3333334 0.10000005
979 175.023178101 24.647888 0.6666667 3.1273368e-07
980 175.023178101 30.28169 2.0 0.10000039
987 175.023178101 28.87324 1.3333334 0.10000037
986 175.023178101 28.87324 2.0 0.10000037
475 175.023178101 16.90141 -1.3333334 0.20000021
476 175.023178101 16.90141 -2.0 0.20000021
483 175.023178101 14.084507 -1.3333334 0.20000018
482 175.023178101 14.788733 -2.0 0.2000002
1265 176.049819946 39.43662 1.3333334 0.1000005
1266 176.049819946 39.43662 0.6666667 0.1000005
1273 176.049819946 37.323944 2.0 0.10000047
1272 176.049819946 38.028168 0.6666667 0.100000486
761 176.049819946 31.690142 -2.0 4.0208616e-07
762 176.049819946 30.985916 -1.3333334 3.931509e-07
769 176.049819946 28.87324 -2.0 3.6634515e-07
768 176.049819946 28.87324 -1.3333334 3.6634515e-07
958 176.049835205 29.577465 0.6666667 3.7528042e-07
959 176.049835205 28.87324 2.0 3.6634515e-07
966 176.049835205 27.464788 1.3333334 3.4847466e-07
965 176.049835205 27.464788 2.0 3.4847466e-07
454 176.049835205 24.647888 -2.0 0.20000032
455 176.049835205 23.943663 -1.3333334 0.2000003
462 176.049835205 21.830986 -2.0 0.20000029
461 176.049835205 21.830986 -1.3333334 0.20000029
657 177.741088867 15.492958 2.0 0.2000002
658 177.741088867 15.492958 1.3333334 0.2000002
665 177.741088867 14.084507 0.6666667 0.20000018
664 177.741088867 14.084507 1.3333334 0.20000018
153 177.741088867 9.154929 0.0 0.10000012
154 177.741088867 9.154929 -0.6666667 0.10000012
161 177.741088867 6.338028 0.0 0.10000008
160 177.741088867 7.0422535 -0.6666667 0.10000009
1161 177.383880615 40.84507 -1.3333334 0.100000516
1162 177.383880615 40.84507 -2.0 0.100000516
1169 177.383880615 39.43662 -1.3333334 0.1000005
1168 177.383880615 39.43662 -0.6666667 0.1000005
657 177.383880615 15.492958 2.0 0.2000002
658 177.383880615 15.492958 1.3333334 0.2000002
665 177.383880615 14.084507 0.6666667 0.20000018
664 177.383880615 14.084507 1.3333334 0.20000018
944 177.741088867 28.87324 -0.6666667 0.20000038
945 177.741088867 28.169014 0.0 0.20000036
952 177.741088867 25.352112 -0.6666667 0.20000033
951 177.741088867 25.352112 0.0 0.20000033
440 177.741088867 16.90141 -2.0 0.10000022
441 177.741088867 16.197184 -1.3333334 0.10000021
448 177.741088867 14.084507 -2.0 0.10000018
447 177.741088867 14.084507 -1.3333334 0.10000018
1448 177.383895874 47.183098 -0.6666667 5.986616e-07
1449 177.383895874 47.183098 -1.3333334 5.986616e-07
1456 177.383895874 50.0 -1.3333334 0.100000635
1455 177.383895874 50.0 -0.6666667 0.100000635
944 177.383895874 28.87324 -0.6666667 0.20000038
945 177.383895874 28.169014 0.0 0.20000036
952 177.383895874 25.352112 -0.6666667 0.20000033
951 177.383895874 25.352112 0.0 0.20000033
664 175.660232544 14.084507 1.3333334 0.20000018
665 175.660232544 14.084507 0.6666667 0.20000018
672 175.660232544 23.943663 1.3333334 3.0379843e-07
671 175.660232544 23.943663 2.0 3.0379843e-07
160 175.660232544 7.0422535 -0.6666667 0.10000009
161 175.660232544 6.338028 0.0 0.10000008
168 175.660232544 4.2253523 -0.6666667 0.10000005
167 175.660232544 4.2253523 0.0 0.10000005
937 175.660232544 30.985916 0.0 0.20000039
938 175.660232544 30.985916 -0.6666667 0.20000039
945 175.660232544 28.169014 0.0 0.20000036
944 175.660232544 28.87324 -0.6666667 0.20000038
433 175.660232544 19.014084 -1.3333334 0.10000024
434 175.660232544 19.014084 -2.0 0.10000024
441 175.660232544 16.197184 -1.3333334 0.10000021
440 175.660232544 16.90141 -2.0 0.10000022
1147 173.323013306 42.957745 0.0 0.100000545
1148 173.323013306 42.957745 -0.6666667 0.100000545
1155 173.323013306 41.549297 0.0 0.10000053
1154 173.323013306 42.25352 -2.0 0.10000054
643 173.323013306 12.676056 2.0 0.100000165
644 173.323013306 12.676056 1.3333334 0.100000165
651 173.323013306 16.90141 2.0 0.20000021
650 173.323013306 17.605635 0.6666667 0.20000023
1483 171.945846558 50.0 1.3333334 0.20000064
1484 171.945846558 50.0 0.6666667 0.20000064
1491 171.945846558 49.295776 0.6666667 0.20000063
1490 171.945846558 49.295776 1.3333334 0.20000063
979 171.945846558 24.647888 0.6666667 3.1273368e-07
980 171.945846558 30.28169 2.0 0.10000039
987 171.945846558 28.87324 1.3333334 0.10000037
986 171.945846558 28.87324 2.0 0.10000037
1462 173.323028564 49.295776 -0.6666667 0.10000063
1463 173.323028564 49.295776 -1.3333334 0.10000063
1470 173.323028564 48.59155 -1.3333334 0.10000062
1469 173.323028564 48.59155 -0.6666667 0.10000062
958 173.323028564 29.577465 0.6666667 3.7528042e-07
959 173.323028564 28.87324 2.0 3.6634515e-07
966 173.323028564 27.464788 1.3333334 3.4847466e-07
965 173.323028564 27.464788 2.0 3.4847466e-07
1168 172.46685791 39.43662 -0.6666667 0.1000005
1169 172.46685791 39.43662 -1.3333334 0.1000005
1176 172.46685791 38.028168 -0.6666667 0.100000486
1175 172.46685791 38.028168 0.0 0.100000486
664 172.46685791 14.084507 1.3333334 0.20000018
665 172.46685791 14.084507 0.6666667 0.20000018
672 172.46685791 23.943663 1.3333334 3.0379843e-07
671 172.46685791 23.943663 2.0 3.0379843e-07
1441 172.466873169 47.887325 -0.6666667 6.0759686e-07
1442 172.466873169 47.887325 -1.3333334 6.0759686e-07
1449 172.466873169 47.183098 -1.3333334 5.986616e-07
1448 172.466873169 47.183098 -0.6666667 5.986616e-07
937 172.466873169 30.985916 0.0 0.20000039
938 172.466873169 30.985916 -0.6666667 0.20000039
945 172.466873169 28.169014 0.0 0.20000036
944 172.466873169 28.87324 -0.6666667 0.20000038
678 179.411224365 22.535212 2.0 2.8592794e-07
679 179.411224365 22.535212 1.3333334 2.8592794e-07
686 179.411224365 21.12676 0.6666667 2.6805742e-07
685 179.411224365 21.12676 1.3333334 2.6805742e-07
174 179.411224365 2.1126761 -0.6666667 0.10000003
175 179.411224365 1.4084507 0.0 0.10000002
182 179.411224365 11.971831 -0.6666667 0.20000015
181 179.411224365 11.971831 0.0 0.20000015
1182 176.823822021 37.323944 -2.0 0.10000047
1183 176.823822021 42.957745 0.0 0.20000055
1190 176.823822021 42.25352 -2.0 0.20000054
1189 176.823822021 42.25352 -1.3333334 0.20000054
678 176.823822021 22.535212 2.0 2.8592794e-07
679 176.823822021 22.535212 1.3333334 2.8592794e-07
686 176.823822021 21.12676 0.6666667 2.6805742e-07
685 176.823822021 21.12676 1.3333334 2.6805742e-07
923 179.411254883 36.619717 -0.6666667 0.20000046
924 179.411254883 35.915493 0.0 0.20000046
931 179.411254883 33.80282 -0.6666667 0.20000044
930 179.411254883 33.80282 0.0 0.20000044
419 179.411254883 23.943663 -1.3333334 0.10000031
420 179.411254883 23.943663 -2.0 0.10000031
427 179.411254883 21.12676 -1.3333334 0.10000027
426 179.411254883 21.830986 -2.0 0.10000028
1427 176.823852539 49.295776 -0.6666667 6.2546735e-07
1428 176.823852539 49.295776 -1.3333334 6.2546735e-07
1435 176.823852539 48.59155 -1.3333334 6.165321e-07
1434 176.823852539 48.59155 -0.6666667 6.165321e-07
923 176.823852539 36.619717 -0.6666667 0.20000046
924 176.823852539 35.915493 0.0 0.20000046
931 176.823852539 33.80282 -0.6666667 0.20000044
930 176.823852539 33.80282 0.0 0.20000044
685 173.225814819 21.12676 1.3333334 2.6805742e-07
686 173.225814819 21.12676 0.6666667 2.6805742e-07
693 173.225814819 19.014084 2.0 2.4125168e-07
692 173.225814819 19.71831 0.6666667 2.5018693e-07
181 173.225814819 11.971831 0.0 0.20000015
182 173.225814819 11.971831 -0.6666667 0.20000015
189 173.225814819 9.154929 0.0 0.20000012
188 173.225814819 9.859155 -0.6666667 0.20000012
916 173.225860596 27.464788 0.0 0.10000035
917 173.225860596 26.760563 0.0 0.100000344
924 173.225860596 35.915493 0.0 0.20000046
923 173.225860596 36.619717 -0.6666667 0.20000046
412 173.225860596 14.084507 -2.0 1.7870495e-07
413 173.225860596 13.380281 -1.3333334 1.697697e-07
420 173.225860596 23.943663 -2.0 0.10000031
419 173.225860596 23.943663 -1.3333334 0.10000031
1189 166.971466064 42.25352 -1.3333334 0.20000054
1190 166.971466064 42.25352 -2.0 0.20000054
1197 166.971466064 40.84507 -1.3333334 0.20000052
1196 166.971466064 40.84507 -0.6666667 0.20000052
685 166.971466064 21.12676 1.3333334 2.6805742e-07
686 166.971466064 21.12676 0.6666667 2.6805742e-07
693 166.971466064 19.014084 2.0 2.4125168e-07
692 166.971466064 19.71831 0.6666667 2.5018693e-07
1420 166.971557617 50.0 -0.6666667 6.3440257e-07
1421 166.971557617 50.0 -1.3333334 6.3440257e-07
1428 166.971557617 49.295776 -1.3333334 6.2546735e-07
1427 166.971557617 49.295776 -0.6666667 6.2546735e-07
916 166.971557617 27.464788 0.0 0.10000035
917 166.971557617 26.760563 0.0 0.100000344
924 166.971557617 35.915493 0.0 0.20000046
923 166.971557617 36.619717 -0.6666667 0.20000046
760 164.469833374 31.690142 -1.3333334 4.0208616e-07
761 164.469833374 31.690142 -2.0 4.0208616e-07
768 164.469833374 28.87324 -1.3333334 3.6634515e-07
767 164.469833374 29.577465 -2.0 3.7528042e-07
256 164.469833374 4.2253523 1.3333334 0.10000005
257 164.469833374 4.2253523 0.6666667 0.10000005
264 164.469833374 2.1126761 2.0 0.10000003
263 164.469833374 2.8169014 0.6666667 0.10000004
650 166.24760437 17.605635 0.6666667 0.20000023
651 166.24760437 16.90141 2.0 0.20000021
658 166.24760437 15.492958 1.3333334 0.2000002
657 166.24760437 15.492958 2.0 0.2000002
146 166.24760437 11.971831 -0.6666667 0.10000015
147 166.24760437 11.267606 0.0 0.10000014
154 166.24760437 9.154929 -0.6666667 0.10000012
153 166.24760437 9.154929 0.0 0.10000012
972 164.469802856 26.056337 1.3333334 3.3060417e-07
973 164.469802856 26.056337 0.6666667 3.3060417e-07
980 164.469802856 30.28169 2.0 0.10000039
979 164.469802856 24.647888 0.6666667 3.1273368e-07
468 164.469802856 19.71831 -2.0 0.20000026
469 164.469802856 19.014084 -1.3333334 0.20000024
476 164.469802856 16.90141 -2.0 0.20000021
475 164.469802856 16.90141 -1.3333334 0.20000021
951 166.247619629 25.352112 0.0 0.20000033
952 166.247619629 25.352112 -0.6666667 0.20000033
959 166.247619629 28.87324 2.0 3.6634515e-07
958 166.247619629 29.577465 0.6666667 3.7528042e-07
447 166.247619629 14.084507 -1.3333334 0.10000018
448 166.247619629 14.084507 -2.0 0.10000018
455 166.247619629 23.943663 -1.3333334 0.2000003
454 166.247619629 24.647888 -2.0 0.20000032
671 164.725265503 23.943663 2.0 3.0379843e-07
672 164.725265503 23.943663 1.3333334 3.0379843e-07
679 164.725265503 22.535212 1.3333334 2.8592794e-07
678 164.725265503 22.535212 2.0 2.8592794e-07
167 164.725265503 4.2253523 0.0 0.10000005
168 164.725265503 4.2253523 -0.6666667 0.10000005
175 164.725265503 1.4084507 0.0 0.10000002
174 164.725265503 2.1126761 -0.6666667 0.10000003
930 164.725280762 33.80282 0.0 0.20000044
931 164.725280762 33.80282 -0.6666667 0.20000044
938 164.725280762 30.985916 -0.6666667 0.20000039
937 164.725280762 30.985916 0.0 0.20000039
426 164.725280762 21.830986 -2.0 0.10000028
427 164.725280762 21.12676 -1.3333334 0.10000027
434 164.725280762 19.014084 -2.0 0.10000024
433 164.725280762 19.014084 -1.3333334 0.10000024
692 160.322006226 19.71831 0.6666667 2.5018693e-07
693 160.322006226 19.014084 2.0 2.4125168e-07
700 160.322006226 23.943663 0.6666667 0.10000031
699 160.322006226 23.943663 1.3333334 0.10000031
188 160.322006226 9.859155 -0.6666667 0.20000012
189 160.322006226 9.154929 0.0 0.20000012
196 160.322006226 7.0422535 -0.6666667 0.20000009
195 160.322006226 7.0422535 0.0 0.20000009
909 160.322097778 30.28169 -0.6666667 0.10000039
910 160.322097778 29.577465 0.0 0.100000374
917 160.322097778 26.760563 0.0 0.100000344
916 160.322097778 27.464788 0.0 0.10000035
405 160.322097778 16.197184 -1.3333334 2.055107e-07
406 160.322097778 16.197184 -2.0 2.055107e-07
413 160.322097778 13.380281 -1.3333334 1.697697e-07
412 160.322097778 14.084507 -2.0 1.7870495e-07
699 176.510116577 23.943663 1.3333334 0.10000031
700 176.510116577 23.943663 0.6666667 0.10000031
707 176.510116577 21.830986 2.0 0.10000028
706 176.510116577 22.535212 0.6666667 0.100000285
195 176.510116577 7.0422535 0.0 0.20000009
196 176.510116577 7.0422535 -0.6666667 0.20000009
203 176.510116577 4.2253523 0.0 0.20000006
202 176.510116577 4.9295774 -0.6666667 0.20000006
1203 170.479171753 39.43662 0.0 0.20000051
1204 170.479171753 39.43662 -0.6666667 0.20000051
1211 170.479171753 38.028168 0.0 0.20000048
1210 170.479171753 38.732395 -2.0 0.2000005
699 170.479171753 23.943663 1.3333334 0.10000031
700 170.479171753 23.943663 0.6666667 0.10000031
707 170.479171753 21.830986 2.0 0.10000028
706 170.479171753 22.535212 0.6666667 0.100000285
902 176.510177612 32.394367 0.0 0.10000041
903 176.510177612 32.394367 -0.6666667 0.10000041
910 176.510177612 29.577465 0.0 0.100000374
909 176.510177612 30.28169 -0.6666667 0.10000039
398 176.510177612 19.014084 -2.0 2.4125168e-07
399 176.510177612 18.309858 -1.3333334 2.3231642e-07
406 176.510177612 16.197184 -2.0 2.055107e-07
405 176.510177612 16.197184 -1.3333334 2.055107e-07
1406 170.479400635 44.366196 -0.6666667 0.20000057
1407 170.479400635 44.366196 -1.3333334 0.20000057
1414 170.479400635 43.661972 -1.3333334 0.20000055
1413 170.479400635 43.661972 -0.6666667 0.20000055
902 170.479400635 32.394367 0.0 0.10000041
903 170.479400635 32.394367 -0.6666667 0.10000041
910 170.479400635 29.577465 0.0 0.100000374
909 170.479400635 30.28169 -0.6666667 0.10000039
706 162.633911133 22.535212 0.6666667 0.100000285
707 162.633911133 21.830986 2.0 0.10000028
714 162.633911133 20.422535 1.3333334 0.10000026
713 162.633911133 20.422535 2.0 0.10000026
202 162.633911133 4.9295774 -0.6666667 0.20000006
203 162.633911133 4.2253523 0.0 0.20000006
210 162.633911133 2.1126761 -0.6666667 0.20000003
209 162.633911133 2.1126761 0.0 0.20000003
888 162.634124756 24.647888 0.0 3.1273368e-07
889 162.634124756 24.647888 -0.6666667 3.1273368e-07
896 162.634124756 34.507042 0.0 0.10000044
895 162.634124756 35.21127 -0.6666667 0.10000045
384 162.634124756 23.943663 -2.0 3.0379843e-07
385 162.634124756 23.239437 -1.3333334 2.9486318e-07
392 162.634124756 21.12676 -2.0 2.6805742e-07
391 162.634124756 21.12676 -1.3333334 2.6805742e-07
1210 156.901153564 38.732395 -2.0 0.2000005
1211 156.901153564 38.028168 0.0 0.20000048
1218 156.901153564 37.323944 -2.0 0.20000048
1217 156.901153564 37.323944 -1.3333334 0.20000048
706 156.901153564 22.535212 0.6666667 0.100000285
707 156.901153564 21.830986 2.0 0.10000028
714 156.901153564 20.422535 1.3333334 0.10000026
713 156.901153564 20.422535 2.0 0.10000026
895 156.901473999 35.21127 -0.6666667 0.10000045
896 156.901473999 34.507042 0.0 0.10000044
903 156.901473999 32.394367 -0.6666667 0.10000041
902 156.901473999 32.394367 0.0 0.10000041
391 156.901473999 21.12676 -1.3333334 2.6805742e-07
392 156.901473999 21.12676 -2.0 2.6805742e-07
399 156.901473999 18.309858 -1.3333334 2.3231642e-07
398 156.901473999 19.014084 -2.0 2.4125168e-07
713 126.165634155 20.422535 2.0 0.10000026
714 126.165634155 20.422535 1.3333334 0.10000026
721 126.165634155 19.014084 0.6666667 0.10000024
720 126.165634155 19.014084 1.3333334 0.10000024
209 126.165634155 2.1126761 0.0 0.20000003
210 126.165634155 2.1126761 -0.6666667 0.20000003
217 126.165634155 6.338028 2.0 8.041723e-08
216 126.165634155 -2.5376103e-09 -0.6666667 0.2
1399 126.169250488 45.070423 -0.6666667 0.20000057
1400 126.169250488 45.070423 -1.3333334 0.20000057
1407 126.169250488 44.366196 -1.3333334 0.20000057
1406 126.169250488 44.366196 -0.6666667 0.20000057
895 126.169250488 35.21127 -0.6666667 0.10000045
896 126.169250488 34.507042 0.0 0.10000044
903 126.169250488 32.394367 -0.6666667 0.10000041
902 126.169250488 32.394367 0.0 0.10000041
1154 101.030532837 42.25352 -2.0 0.10000054
1155 101.030532837 41.549297 0.0 0.10000053
1162 101.030532837 40.84507 -2.0 0.100000516
1161 101.030532837 40.84507 -1.3333334 0.100000516
650 101.030532837 17.605635 0.6666667 0.20000023
651 101.030532837 16.90141 2.0 0.20000021
658 101.030532837 15.492958 1.3333334 0.2000002
657 101.030532837 15.492958 2.0 0.2000002
1476 107.172447205 47.887325 -0.6666667 0.100000605
1477 107.172447205 47.887325 -1.3333334 0.100000605
1484 107.172447205 50.0 0.6666667 0.20000064
1483 107.172447205 50.0 1.3333334 0.20000064
972 107.172447205 26.056337 1.3333334 3.3060417e-07
973 107.172447205 26.056337 0.6666667 3.3060417e-07
980 107.172447205 30.28169 2.0 0.10000039
979 107.172447205 24.647888 0.6666667 3.1273368e-07
1455 101.030792236 50.0 -0.6666667 0.100000635
1456 101.030792236 50.0 -1.3333334 0.100000635
1463 101.030792236 49.295776 -1.3333334 0.10000063
1462 101.030792236 49.295776 -0.6666667 0.10000063
951 101.030792236 25.352112 0.0 0.20000033
952 101.030792236 25.352112 -0.6666667 0.20000033
959 101.030792236 28.87324 2.0 3.6634515e-07
958 101.030792236 29.577465 0.6666667 3.7528042e-07
1175 79.2881317139 38.028168 0.0 0.100000486
1176 79.2881317139 38.028168 -0.6666667 0.100000486
1183 79.2881317139 42.957745 0.0 0.20000055
1182 79.2881317139 37.323944 -2.0 0.10000047
671 79.2881317139 23.943663 2.0 3.0379843e-07
672 79.2881317139 23.943663 1.3333334 3.0379843e-07
679 79.2881317139 22.535212 1.3333334 2.8592794e-07
678 79.2881317139 22.535212 2.0 2.8592794e-07
1434 79.2882614136 48.59155 -0.6666667 6.165321e-07
1435 79.2882614136 48.59155 -1.3333334 6.165321e-07
1442 79.2882614136 47.887325 -1.3333334 6.0759686e-07
1441 79.2882614136 47.887325 -0.6666667 6.0759686e-07
930 79.2882614136 33.80282 0.0 0.20000044
931 79.2882614136 33.80282 -0.6666667 0.20000044
938 79.2882614136 30.985916 -0.6666667 0.20000039
937 79.2882614136 30.985916 0.0 0.20000039
1196 80.8677139282 40.84507 -0.6666667 0.20000052
1197 80.8677139282 40.84507 -1.3333334 0.20000052
1204 80.8677139282 39.43662 -0.6666667 0.20000051
1203 80.8677139282 39.43662 0.0 0.20000051
692 80.8677139282 19.71831 0.6666667 2.5018693e-07
693 80.8677139282 19.014084 2.0 2.4125168e-07
700 80.8677139282 23.943663 0.6666667 0.10000031
699 80.8677139282 23.943663 1.3333334 0.10000031
1413 80.8704223633 43.661972 -0.6666667 0.20000055
1414 80.8704223633 43.661972 -1.3333334 0.20000055
1421 80.8704223633 50.0 -1.3333334 6.3440257e-07
1420 80.8704223633 50.0 -0.6666667 6.3440257e-07
909 80.8704223633 30.28169 -0.6666667 0.10000039
910 80.8704223633 29.577465 0.0 0.100000374
917 80.8704223633 26.760563 0.0 0.100000344
916 80.8704223633 27.464788 0.0 0.10000035
1217 94.3072052002 37.323944 -1.3333334 0.20000048
1218 94.3072052002 37.323944 -2.0 0.20000048
1225 94.3072052002 41.549297 2.0 5.271796e-07
1224 94.3072052002 42.25352 0.6666667 5.3611484e-07
713 94.3072052002 20.422535 2.0 0.10000026
714 94.3072052002 20.422535 1.3333334 0.10000026
721 94.3072052002 19.014084 0.6666667 0.10000024
720 94.3072052002 19.014084 1.3333334 0.10000024
1392 94.3103027344 45.774647 -0.6666667 0.20000058
1393 94.3103027344 45.774647 -1.3333334 0.20000058
1400 94.3103027344 45.070423 -1.3333334 0.20000057
1399 94.3103027344 45.070423 -0.6666667 0.20000057
888 94.3103027344 24.647888 0.0 3.1273368e-07
889 94.3103027344 24.647888 -0.6666667 3.1273368e-07
896 94.3103027344 34.507042 0.0 0.10000044
895 94.3103027344 35.21127 -0.6666667 0.10000045
