Node_ID,S_Mises,Orig.X,Orig.Y,Orig.Z
1,167.437866211,11.971831,-1.3333334,1.5189921e-07
2,163.80149078350001,11.971831,-2.0,1.5189921e-07
3,138.9632453915,11.267606,-1.3333334,1.4296397e-07
4,143.723110199,11.267606,-2.0,1.4296397e-07
5,166.81874084499998,10.56338,-1.3333334,1.3402871e-07
6,161.553489685,10.56338,-2.0,1.3402871e-07
7,159.154342651,9.859155,-1.3333334,1.2509346e-07
8,161.48203277599998,9.859155,-2.0,1.2509346e-07
9,163.4362945555,9.154929,-1.3333334,1.1615821e-07
10,153.2248210905,9.154929,-2.0,1.1615821e-07
11,144.10398674025,8.450705,-1.3333334,1.0722298e-07
12,157.00959396374998,8.450705,-2.0,1.0722298e-07
13,164.8209609985,7.746479,-1.3333334,9.828773e-08
14,162.77162170399998,7.746479,-2.0,9.828773e-08
15,140.6010398865,7.0422535,-1.3333334,8.9352476e-08
16,154.38205909725,7.0422535,-2.0,8.9352476e-08
17,158.452533722,6.338028,-1.3333334,8.041723e-08
18,145.079212189,6.338028,-2.0,8.041723e-08
19,155.85666275025,5.633803,-1.3333334,7.1481985e-08
20,168.58981323224998,5.633803,-2.0,7.1481985e-08
21,166.882736206,4.9295774,-1.3333334,6.254673e-08
22,148.5059394835,4.9295774,-2.0,6.254673e-08
23,146.65320968625,4.2253523,-1.3333334,5.361149e-08
24,147.7707920075,4.2253523,-2.0,5.361149e-08
25,154.50584411625,3.5211267,-1.3333334,4.4676238e-08
26,162.9465026855,3.5211267,-2.0,4.4676238e-08
27,166.09988784774998,2.8169014,-1.3333334,3.5740992e-08
28,164.577354431,2.8169014,-2.0,3.5740992e-08
29,169.754020691,2.1126761,-1.3333334,2.6805743e-08
30,158.74209403999998,2.1126761,-2.0,2.6805743e-08
31,157.29383277899998,1.4084507,-1.3333334,1.7870496e-08
32,165.4523124695,1.4084507,-2.0,1.7870496e-08
33,165.45895767225,0.70422536,-1.3333334,8.935248e-09
34,165.5181922915,0.70422536,-2.0,8.935248e-09
35,164.1655960085,0.0,-1.3333334,0.0
36,168.50088501,0.0,-2.0,0.0
37,166.72549819975,11.971831,-1.3333334,0.10000015
38,165.82358551049998,11.971831,-2.0,0.10000015
39,166.8232955935,11.267606,-1.3333334,0.10000014
40,165.40321350125,11.267606,-2.0,0.10000014
41,158.30742263825,10.56338,-1.3333334,0.100000136
42,152.75794982949998,10.56338,-2.0,0.100000136
43,166.5394210815,9.859155,-1.3333334,0.10000013
44,163.8215179445,9.859155,-2.0,0.10000013
45,162.08449173,9.154929,-1.3333334,0.10000012
46,164.17441940325,9.154929,-2.0,0.10000012
47,162.99836730975,8.450705,-1.3333334,0.100000106
48,155.3015823365,8.450705,-2.0,0.100000106
49,149.88990020749998,7.746479,-1.3333334,0.1000001
50,161.202568054,7.746479,-2.0,0.1000001
51,161.19124603275,7.0422535,-1.3333334,0.10000009
52,161.5804634095,7.0422535,-2.0,0.10000009
53,163.9212493895,6.338028,-1.3333334,0.10000008
54,164.2005615235,6.338028,-2.0,0.10000008
55,161.53977203375,5.633803,-1.3333334,0.100000076
56,160.539916992,5.633803,-2.0,0.100000076
57,163.337081909,4.9295774,-1.3333334,0.10000006
58,163.03652572625,4.9295774,-2.0,0.10000006
59,163.45547103874998,4.2253523,-1.3333334,0.10000005
60,164.59460067724999,4.2253523,-2.0,0.10000005
61,162.36475753775,3.5211267,-1.3333334,0.100000046
62,157.0279426575,3.5211267,-2.0,0.100000046
63,154.34059906,2.8169014,-1.3333334,0.10000004
64,166.3729629515,2.8169014,-2.0,0.10000004
65,165.80681610099998,2.1126761,-1.3333334,0.10000003
66,162.62146377575,2.1126761,-2.0,0.10000003
67,161.62739563,1.4084507,-1.3333334,0.10000002
68,161.34013748175,1.4084507,-2.0,0.10000002
69,156.14333724975,0.70422536,-1.3333334,0.10000001
70,152.85893249499998,0.70422536,-2.0,0.10000001
71,163.4606018065,-1.2688052e-09,-1.3333334,0.1
72,162.500514984,-1.2688052e-09,-2.0,0.1
73,157.8995666505,11.971831,-1.3333334,0.20000015
74,157.92344665550002,11.971831,-2.0,0.20000015
75,161.119255066,11.267606,-1.3333334,0.20000015
76,159.833278656,11.267606,-2.0,0.20000015
77,159.0162353515,10.56338,-1.3333334,0.20000014
78,162.53529357899998,10.56338,-2.0,0.20000014
79,161.00491333,9.859155,-1.3333334,0.20000012
80,155.52843856825,9.859155,-2.0,0.20000012
81,155.584968567,9.154929,-1.3333334,0.20000012
82,160.06972122175,9.154929,-2.0,0.20000012
83,160.6221809385,8.450705,-1.3333334,0.2000001
84,160.692512512,8.450705,-2.0,0.2000001
85,162.24017334,7.746479,-1.3333334,0.2000001
86,160.75284576425,7.746479,-2.0,0.2000001
87,155.96201324474998,7.0422535,-1.3333334,0.20000009
88,155.2294044495,7.0422535,-2.0,0.20000009
89,159.51970672599998,6.338028,-1.3333334,0.20000008
90,160.92851638775,6.338028,-2.0,0.20000008
91,160.6179199215,5.633803,-1.3333334,0.20000008
92,161.9833374025,5.633803,-2.0,0.20000008
93,160.53532409675,4.9295774,-1.3333334,0.20000006
94,156.34238052375,4.9295774,-2.0,0.20000006
95,155.7396354675,4.2253523,-1.3333334,0.20000006
96,159.512599945,4.2253523,-2.0,0.20000006
97,160.84970092775,3.5211267,-1.3333334,0.20000005
98,160.556022644,3.5211267,-2.0,0.20000005
99,161.75829315200002,2.8169014,-1.3333334,0.20000003
100,160.35615539575,2.8169014,-2.0,0.20000003
101,156.71286010775,2.1126761,-1.3333334,0.20000003
102,156.20992660525,2.1126761,-2.0,0.20000003
103,159.50753021225,1.4084507,-1.3333334,0.20000002
104,160.78668594375,1.4084507,-2.0,0.20000002
105,160.5064620975,0.70422536,-1.3333334,0.20000002
106,161.5520401005,0.70422536,-2.0,0.20000002
107,160.208686829,-2.5376103e-09,-1.3333334,0.2
108,157.0083389285,-2.5376103e-09,-2.0,0.2
109,156.576007843,11.971831,0.0,1.5189921e-07
110,159.5049057005,11.971831,-0.6666667,1.5189921e-07
111,160.73906707775,11.267606,0.0,1.4296397e-07
112,160.468994141,11.267606,-0.6666667,1.4296397e-07
113,161.354187012,10.56338,0.0,1.3402871e-07
114,160.0825195315,10.56338,-0.6666667,1.3402871e-07
115,157.1833610535,9.859155,0.0,1.2509346e-07
116,156.79824829075,9.859155,-0.6666667,1.2509346e-07
117,159.50527954075,9.154929,0.0,1.1615821e-07
118,160.70696258549998,9.154929,-0.6666667,1.1615821e-07
119,160.443992615,8.450705,0.0,1.0722298e-07
120,161.169845581,8.450705,-0.6666667,1.0722298e-07
121,159.98264694225,7.746479,0.0,9.828773e-08
122,157.3188591005,7.746479,-0.6666667,9.828773e-08
123,156.9550437925,7.0422535,0.0,8.9352476e-08
124,159.5085716245,7.0422535,-0.6666667,8.9352476e-08
125,160.69029998775,6.338028,0.0,8.041723e-08
126,160.431274414,6.338028,-0.6666667,8.041723e-08
127,161.01112365699998,5.633803,0.0,7.1481985e-08
128,159.5868873595,5.633803,-0.6666667,7.1481985e-08
129,158.46789169325,4.9295774,0.0,6.254673e-08
130,158.42768096925,4.9295774,-0.6666667,6.254673e-08
131,158.58803176875,4.2253523,0.0,5.361149e-08
132,159.7617759705,4.2253523,-0.6666667,5.361149e-08
133,160.4297180175,3.5211267,0.0,4.4676238e-08
134,159.88218688950002,3.5211267,-0.6666667,4.4676238e-08
135,159.03525924675,2.8169014,0.0,3.5740992e-08
136,158.8979034425,2.8169014,-0.6666667,3.5740992e-08
137,160.5908088685,2.1126761,0.0,2.6805743e-08
138,159.8290901185,2.1126761,-0.6666667,2.6805743e-08
139,158.6710777285,1.4084507,0.0,1.7870496e-08
140,159.25811767599998,1.4084507,-0.6666667,1.7870496e-08
141,158.25746917700002,0.70422536,0.0,8.935248e-09
142,157.9214019775,0.70422536,-0.6666667,8.935248e-09
143,158.24582672125,0.0,0.0,0.0
144,161.21756744375,0.0,-0.6666667,0.0
145,160.86118316649998,11.971831,0.0,0.10000015
146,159.00616073625,11.971831,-0.6666667,0.10000015
147,159.8187713625,11.267606,0.0,0.10000014
148,158.855682373,11.267606,-0.6666667,0.10000014
149,158.731376648,10.56338,0.0,0.100000136
150,159.05444335925,10.56338,-0.6666667,0.100000136
151,161.635555267,9.859155,0.0,0.10000013
152,161.84402847274998,9.859155,-0.6666667,0.10000013
153,162.78306198125,9.154929,0.0,0.10000012
154,165.64736175550001,9.154929,-0.6666667,0.10000012
155,159.990249634,8.450705,0.0,0.100000106
156,159.66747665425,8.450705,-0.6666667,0.100000106
157,159.75714111325,7.746479,0.0,0.1000001
158,160.859737396,7.746479,-0.6666667,0.1000001
159,162.8831443785,7.0422535,0.0,0.10000009
160,166.439628601,7.0422535,-0.6666667,0.10000009
161,168.662864685,6.338028,0.0,0.10000008
162,160.291015625,6.338028,-0.6666667,0.10000008
163,159.31755828849998,5.633803,0.0,0.100000076
164,158.76184844975,5.633803,-0.6666667,0.100000076
165,159.673816681,4.9295774,0.0,0.10000006
166,161.78413772574999,4.9295774,-0.6666667,0.10000006
167,163.438983917,4.2253523,0.0,0.10000005
168,163.477729797,4.2253523,-0.6666667,0.10000005
169,160.8858184815,3.5211267,0.0,0.100000046
170,160.129611969,3.5211267,-0.6666667,0.100000046
171,158.38804245,2.8169014,0.0,0.10000004
172,155.68708801275,2.8169014,-0.6666667,0.10000004
173,158.810985565,2.1126761,0.0,0.10000003
174,164.5941047665,2.1126761,-0.6666667,0.10000003
175,165.537734985,1.4084507,0.0,0.10000002
176,161.110046387,1.4084507,-0.6666667,0.10000002
177,160.47389984149999,0.70422536,0.0,0.10000001
178,158.905029297,0.70422536,-0.6666667,0.10000001
179,156.0648880005,-1.2688052e-09,0.0,0.1
180,158.162750244,-1.2688052e-09,-0.6666667,0.1
181,165.12520217875,11.971831,0.0,0.20000015
182,168.0823745725,11.971831,-0.6666667,0.20000015
183,161.041519165,11.267606,0.0,0.20000015
184,160.4232673645,11.267606,-0.6666667,0.20000015
185,158.91203689600002,10.56338,0.0,0.20000014
186,161.61620330825,10.56338,-0.6666667,0.20000014
187,162.917274475,9.859155,0.0,0.20000012
188,160.43889999375,9.859155,-0.6666667,0.20000012
189,160.25659942599998,9.154929,0.0,0.20000012
190,159.1277770995,9.154929,-0.6666667,0.20000012
191,159.62305450425,8.450705,0.0,0.2000001
192,159.29956436150002,8.450705,-0.6666667,0.2000001
193,160.5751457215,7.746479,0.0,0.2000001
194,157.62136077875,7.746479,-0.6666667,0.2000001
195,157.33795166,7.0422535,0.0,0.20000009
196,162.10267639149998,7.0422535,-0.6666667,0.20000009
197,156.66230011,6.338028,0.0,0.20000008
198,158.73853302,6.338028,-0.6666667,0.20000008
199,159.83477401725,5.633803,0.0,0.20000008
200,160.41860198975002,5.633803,-0.6666667,0.20000008
201,157.3508377075,4.9295774,0.0,0.20000006
202,157.3665504455,4.9295774,-0.6666667,0.20000006
203,162.01384735099998,4.2253523,0.0,0.20000006
204,159.2373428345,4.2253523,-0.6666667,0.20000006
205,160.00221633925,3.5211267,0.0,0.20000005
206,159.36788558975002,3.5211267,-0.6666667,0.20000005
207,159.925415039,2.8169014,0.0,0.20000003
208,164.3446388245,2.8169014,-0.6666667,0.20000003
209,153.71378326425,2.1126761,0.0,0.20000003
210,140.620437622,2.1126761,-0.6666667,0.20000003
211,162.5345230105,1.4084507,0.0,0.20000002
212,161.47344207775,1.4084507,-0.6666667,0.20000002
213,158.75523757925,0.70422536,0.0,0.20000002
214,159.0827789305,0.70422536,-0.6666667,0.20000002
215,162.53685379025,-2.5376103e-09,0.0,0.2
216,155.206439972,-2.5376103e-09,-0.6666667,0.2
217,146.406616211,6.338028,2.0,8.041723e-08
218,162.814254761,6.338028,1.3333334,8.041723e-08
219,161.675228119,5.633803,2.0,7.1481985e-08
220,158.790966034,5.633803,1.3333334,7.1481985e-08
221,162.2906570435,5.633803,0.6666667,7.1481985e-08
222,165.2223358155,4.9295774,2.0,6.254673e-08
223,162.20120620749998,4.9295774,1.3333334,6.254673e-08
224,161.49332428,4.9295774,0.6666667,6.254673e-08
225,163.08851623549998,4.2253523,2.0,5.361149e-08
226,161.8806800845,4.2253523,1.3333334,5.361149e-08
227,158.8692398075,4.2253523,0.6666667,5.361149e-08
228,160.7595100405,3.5211267,2.0,4.4676238e-08
229,157.408317566,3.5211267,1.3333334,4.4676238e-08
230,145.52887916575,3.5211267,0.6666667,4.4676238e-08
231,140.694507599,2.8169014,2.0,3.5740992e-08
232,163.3564453125,2.8169014,1.3333334,3.5740992e-08
233,162.0965423585,2.8169014,0.6666667,3.5740992e-08
234,158.975997925,2.1126761,2.0,2.6805743e-08
235,156.25756454475,2.1126761,1.3333334,2.6805743e-08
236,152.51391220074999,2.1126761,0.6666667,2.6805743e-08
237,148.31910896275002,1.4084507,2.0,1.7870496e-08
238,147.010166168,1.4084507,1.3333334,1.7870496e-08
239,163.0239486695,1.4084507,0.6666667,1.7870496e-08
240,161.6132240295,0.70422536,2.0,8.935248e-09
241,157.21717453,0.70422536,1.3333334,8.935248e-09
242,155.12938308725,0.70422536,0.6666667,8.935248e-09
243,162.43420791625,0.0,2.0,0.0
244,166.50523757925,0.0,1.3333334,0.0
245,164.16897583000002,0.0,0.6666667,0.0
246,162.7290267945,6.338028,2.0,0.10000008
247,158.89155960074999,6.338028,1.3333334,0.10000008
248,156.17335128775,6.338028,0.6666667,0.10000008
249,160.29164886475002,5.633803,2.0,0.100000076
250,165.60917663575,5.633803,1.3333334,0.100000076
251,153.433784485,5.633803,0.6666667,0.100000076
252,138.9399032595,4.9295774,2.0,0.10000006
253,161.300804138,4.9295774,1.3333334,0.10000006
254,158.29920578,4.9295774,0.6666667,0.10000006
255,157.79697418224998,4.2253523,2.0,0.10000005
256,162.03916168199999,4.2253523,1.3333334,0.10000005
257,154.46592330925,4.2253523,0.6666667,0.10000005
258,144.35931396499998,3.5211267,2.0,0.100000046
259,143.568763733,3.5211267,1.3333334,0.100000046
260,163.127937317,3.5211267,0.6666667,0.100000046
261,163.159088135,2.8169014,2.0,0.10000004
262,160.46635437025,2.8169014,1.3333334,0.10000004
263,152.91909790025,2.8169014,0.6666667,0.10000004
264,145.88603591925,2.1126761,2.0,0.10000003
265,154.357372284,2.1126761,1.3333334,0.10000003
266,165.03839874250002,2.1126761,0.6666667,0.10000003
267,149.748123169,1.4084507,2.0,0.10000002
268,156.92733001725,1.4084507,1.3333334,0.10000002
269,155.770236969,1.4084507,0.6666667,0.10000002
270,147.69113540625,0.70422536,2.0,0.10000001
271,154.511817932,0.70422536,1.3333334,0.10000001
272,160.421836853,0.70422536,0.6666667,0.10000001
273,159.768371582,-1.2688052e-09,2.0,0.1
274,133.94026946999998,-1.2688052e-09,1.3333334,0.1
275,149.1166648865,-1.2688052e-09,0.6666667,0.1
276,156.76902771,6.338028,2.0,0.20000008
277,155.02671813950002,6.338028,1.3333334,0.20000008
278,160.58319091775002,6.338028,0.6666667,0.20000008
279,159.0998649595,5.633803,2.0,0.20000008
280,157.8417892455,5.633803,1.3333334,0.20000008
281,146.578453064,5.633803,0.6666667,0.20000008
282,157.68741607675,4.9295774,2.0,0.20000006
283,166.04339981075,4.9295774,1.3333334,0.20000006
284,161.743572235,4.9295774,0.6666667,0.20000006
285,159.4763412475,4.2253523,2.0,0.20000006
286,158.72365188575,4.2253523,1.3333334,0.20000006
287,158.69134521450002,4.2253523,0.6666667,0.20000006
288,160.84417724600002,3.5211267,2.0,0.20000005
289,156.40514373775,3.5211267,1.3333334,0.20000005
290,159.2723731995,3.5211267,0.6666667,0.20000005
291,164.33534240724998,2.8169014,2.0,0.20000003
292,160.66324615475,2.8169014,1.3333334,0.20000003
293,159.48762893675,2.8169014,0.6666667,0.20000003
294,159.740814209,2.1126761,2.0,0.20000003
295,163.91253662100002,2.1126761,1.3333334,0.20000003
296,146.38481140125,2.1126761,0.6666667,0.20000003
297,148.96422958375,1.4084507,2.0,0.20000002
298,165.92483520525002,1.4084507,1.3333334,0.20000002
299,160.97052764900002,1.4084507,0.6666667,0.20000002
300,158.54102706925,0.70422536,2.0,0.20000002
301,157.919296265,0.70422536,1.3333334,0.20000002
302,165.0322265625,0.70422536,0.6666667,0.20000002
303,144.6244068145,-2.5376103e-09,2.0,0.2
304,147.1279735565,-2.5376103e-09,1.3333334,0.2
305,164.37930679325,-2.5376103e-09,0.6666667,0.2
306,159.20046234125,11.971831,2.0,1.5189921e-07
307,159.2080841065,11.971831,1.3333334,1.5189921e-07
308,158.7344970705,11.971831,0.6666667,1.5189921e-07
309,166.48735046349998,11.267606,2.0,1.4296397e-07
310,153.99091911300002,11.267606,1.3333334,1.4296397e-07
311,156.267812729,11.267606,0.6666667,1.4296397e-07
312,165.145313263,10.56338,2.0,1.3402871e-07
313,160.190723419,10.56338,1.3333334,1.3402871e-07
314,160.42424392675,10.56338,0.6666667,1.3402871e-07
315,159.71652984600001,9.859155,2.0,1.2509346e-07
316,165.7470932005,9.859155,1.3333334,1.2509346e-07
317,162.24220275875,9.859155,0.6666667,1.2509346e-07
318,164.32511520399999,9.154929,2.0,1.1615821e-07
319,164.977584839,9.154929,1.3333334,1.1615821e-07
320,158.94379043575,9.154929,0.6666667,1.1615821e-07
321,157.91012191750002,8.450705,2.0,1.0722298e-07
322,157.9749145505,8.450705,1.3333334,1.0722298e-07
323,164.176879883,8.450705,0.6666667,1.0722298e-07
324,161.2739486695,7.746479,2.0,9.828773e-08
325,163.06373977675,7.746479,1.3333334,9.828773e-08
326,162.309402466,7.746479,0.6666667,9.828773e-08
327,157.64504623425,7.0422535,2.0,8.9352476e-08
328,158.59629440325,7.0422535,1.3333334,8.9352476e-08
329,158.7648391725,7.0422535,0.6666667,8.9352476e-08
330,164.00124359149999,6.338028,0.6666667,8.041723e-08
331,161.224281311,12.676056,0.6666667,0.100000165
332,162.8405303955,12.676056,0.0,0.100000165
333,162.75453567525,11.971831,2.0,0.10000015
334,159.2262954715,11.971831,1.3333334,0.10000015
335,159.9380149845,11.971831,0.6666667,0.10000015
336,159.698768616,11.267606,2.0,0.10000014
337,163.6845855715,11.267606,1.3333334,0.10000014
338,160.98728179925,11.267606,0.6666667,0.10000014
339,162.50236892675,10.56338,2.0,0.100000136
340,163.52177810675,10.56338,1.3333334,0.100000136
341,158.401741028,10.56338,0.6666667,0.100000136
342,157.249671936,9.859155,2.0,0.10000013
343,158.024658203,9.859155,1.3333334,0.10000013
344,163.25396728549998,9.859155,0.6666667,0.10000013
345,160.57493591325,9.154929,2.0,0.10000012
346,162.02453613275,9.154929,1.3333334,0.10000012
347,163.890071869,9.154929,0.6666667,0.10000012
348,159.79082489025,8.450705,2.0,0.100000106
349,158.3747787475,8.450705,1.3333334,0.100000106
350,158.794883728,8.450705,0.6666667,0.100000106
351,161.7466049195,7.746479,2.0,0.1000001
352,156.66706466675,7.746479,1.3333334,0.1000001
353,158.1984062195,7.746479,0.6666667,0.1000001
354,163.9829978945,7.0422535,2.0,0.10000009
355,161.32278060925,7.0422535,1.3333334,0.10000009
356,159.587123871,7.0422535,0.6666667,0.10000009
357,159.6853942875,12.676056,0.6666667,0.20000017
358,158.962875366,12.676056,0.0,0.20000017
359,152.6604003905,11.971831,2.0,0.20000015
360,154.55692672725002,11.971831,1.3333334,0.20000015
361,159.93599319449999,11.971831,0.6666667,0.20000015
362,158.36236953725,11.267606,2.0,0.20000015
363,158.83164596575,11.267606,1.3333334,0.20000015
364,158.0546112065,11.267606,0.6666667,0.20000015
365,157.407196045,10.56338,2.0,0.20000014
366,156.58765029925001,10.56338,1.3333334,0.20000014
367,159.08264541625,10.56338,0.6666667,0.20000014
368,159.83493041974998,9.859155,2.0,0.20000012
369,159.002357483,9.859155,1.3333334,0.20000012
370,159.77262496974998,9.859155,0.6666667,0.20000012
371,158.813209534,9.154929,2.0,0.20000012
372,159.427734375,9.154929,1.3333334,0.20000012
373,160.74184417725002,9.154929,0.6666667,0.20000012
374,161.11180114725,8.450705,2.0,0.2000001
375,160.575149536,8.450705,1.3333334,0.2000001
376,158.080696106,8.450705,0.6666667,0.2000001
377,157.42868804925,7.746479,2.0,0.2000001
378,159.6786346435,7.746479,1.3333334,0.2000001
379,161.367424011,7.746479,0.6666667,0.2000001
380,160.35658645625,7.0422535,2.0,0.20000009
381,159.37333297725002,7.0422535,1.3333334,0.20000009
382,160.64011001575,7.0422535,0.6666667,0.20000009
383,159.034210205,23.943663,-1.3333334,3.0379843e-07
384,156.793949127,23.943663,-2.0,3.0379843e-07
385,157.3987808225,23.239437,-1.3333334,2.9486318e-07
386,159.597175598,23.239437,-2.0,2.9486318e-07
387,159.69331741325,22.535212,-1.3333334,2.8592794e-07
388,159.44846725475,22.535212,-2.0,2.8592794e-07
389,159.9137420655,21.830986,-1.3333334,2.769927e-07
390,158.36252594,21.830986,-2.0,2.769927e-07
391,151.57085037225,21.12676,-1.3333334,2.6805742e-07
392,147.13665771450002,21.12676,-2.0,2.6805742e-07
393,158.902633667,20.422535,-1.3333334,2.5912217e-07
394,159.60172653200001,20.422535,-2.0,2.5912217e-07
395,158.79740905775,19.71831,-1.3333334,2.5018693e-07
396,157.17861938475,19.71831,-2.0,2.5018693e-07
397,156.605632782,19.014084,-1.3333334,2.4125168e-07
398,154.711933136,19.014084,-2.0,2.4125168e-07
399,153.275840759,18.309858,-1.3333334,2.3231642e-07
400,160.182975769,18.309858,-2.0,2.3231642e-07
401,159.7940864565,17.605635,-1.3333334,2.233812e-07
402,158.4419937135,17.605635,-2.0,2.233812e-07
403,157.2858924865,16.90141,-1.3333334,2.1444595e-07
404,156.15800476075,16.90141,-2.0,2.1444595e-07
405,158.662952423,16.197184,-1.3333334,2.055107e-07
406,162.10289001450002,16.197184,-2.0,2.055107e-07
407,160.4901504515,15.492958,-1.3333334,1.9657546e-07
408,159.7012290955,15.492958,-2.0,1.9657546e-07
409,158.01789093025,14.788733,-1.3333334,1.876402e-07
410,158.80070877075,14.788733,-2.0,1.876402e-07
411,157.49409866324999,14.084507,-1.3333334,1.7870495e-07
412,157.38351058950002,14.084507,-2.0,1.7870495e-07
413,160.256767273,13.380281,-1.3333334,1.697697e-07
414,160.4582366945,13.380281,-2.0,1.697697e-07
415,159.688205719,12.676056,-1.3333334,1.6083446e-07
416,158.052368164,12.676056,-2.0,1.6083446e-07
417,156.54932785025,24.647888,-1.3333334,0.100000314
418,159.0260772705,24.647888,-2.0,0.100000314
419,165.11125564600002,23.943663,-1.3333334,0.10000031
420,168.082450867,23.943663,-2.0,0.10000031
421,160.4383926395,23.239437,-1.3333334,0.1000003
422,159.680141449,23.239437,-2.0,0.1000003
423,158.07390594475,22.535212,-1.3333334,0.100000285
424,155.78004455575,22.535212,-2.0,0.100000285
425,154.57842636125,21.830986,-1.3333334,0.10000028
426,160.18023681675,21.830986,-2.0,0.10000028
427,165.5377883915,21.12676,-1.3333334,0.10000027
428,160.429725647,21.12676,-2.0,0.10000027
429,159.67669677725002,20.422535,-1.3333334,0.10000026
430,158.08366775525002,20.422535,-2.0,0.10000026
431,159.8582115175,19.71831,-1.3333334,0.100000255
432,157.82378005975,19.71831,-2.0,0.100000255
433,158.326286316,19.014084,-1.3333334,0.10000024
434,163.4777679445,19.014084,-2.0,0.10000024
435,160.58799743650002,18.309858,-1.3333334,0.10000023
436,159.33353424075,18.309858,-2.0,0.10000023
437,158.58645248425,17.605635,-1.3333334,0.100000225
438,160.53549194325,17.605635,-2.0,0.100000225
439,162.813819885,16.90141,-1.3333334,0.10000022
440,166.1566848755,16.90141,-2.0,0.10000022
441,168.662879944,16.197184,-1.3333334,0.10000021
442,159.921875,16.197184,-2.0,0.10000021
443,157.4431037905,15.492958,-1.3333334,0.100000195
444,158.0044059755,15.492958,-2.0,0.100000195
445,161.18043136575,14.788733,-1.3333334,0.10000019
446,161.74221420275,14.788733,-2.0,0.10000019
447,163.90771102925,14.084507,-1.3333334,0.10000018
448,165.64737701450002,14.084507,-2.0,0.10000018
449,161.1599121095,13.380281,-1.3333334,0.10000017
450,159.62559127825,13.380281,-2.0,0.10000017
451,159.5632514955,12.676056,-1.3333334,0.100000165
452,163.12429046625,12.676056,-2.0,0.100000165
453,163.4060935975,24.647888,-1.3333334,0.20000032
454,163.34005737325,24.647888,-2.0,0.20000032
455,165.08127594,23.943663,-1.3333334,0.2000003
456,163.0885314945,23.943663,-2.0,0.2000003
457,162.5658607485,23.239437,-1.3333334,0.2000003
458,160.51358032225,23.239437,-2.0,0.2000003
459,161.6087379455,22.535212,-1.3333334,0.20000029
460,158.89223098775,22.535212,-2.0,0.20000029
461,161.8994789125,21.830986,-1.3333334,0.20000029
462,170.2480010985,21.830986,-2.0,0.20000029
463,159.23943328849998,21.12676,-1.3333334,0.20000027
464,160.1629981995,21.12676,-2.0,0.20000027
465,159.52271652225,20.422535,-1.3333334,0.20000026
466,158.53994750975,20.422535,-2.0,0.20000026
467,155.9201927185,19.71831,-1.3333334,0.20000026
468,159.416908264,19.71831,-2.0,0.20000026
469,166.1144561765,19.014084,-1.3333334,0.20000024
470,155.67492675749997,19.014084,-2.0,0.20000024
471,158.57424545275,18.309858,-1.3333334,0.20000024
472,160.1563072205,18.309858,-2.0,0.20000024
473,158.14789962775,17.605635,-1.3333334,0.20000023
474,162.13194656375,17.605635,-2.0,0.20000023
475,165.294567108,16.90141,-1.3333334,0.20000021
476,163.78199005099998,16.90141,-2.0,0.20000021
477,155.95257568350002,16.197184,-1.3333334,0.20000021
478,158.61524963375,16.197184,-2.0,0.20000021
479,160.03720092775,15.492958,-1.3333334,0.2000002
480,159.9319610595,15.492958,-2.0,0.2000002
481,162.53686141974998,14.788733,-1.3333334,0.2000002
482,166.681125641,14.788733,-2.0,0.2000002
483,169.35597229,14.084507,-1.3333334,0.20000018
484,156.2021102905,14.084507,-2.0,0.20000018
485,158.6515426635,13.380281,-1.3333334,0.20000017
486,159.94888305675,13.380281,-2.0,0.20000017
487,163.1661872865,12.676056,-1.3333334,0.20000017
488,162.833076477,12.676056,-2.0,0.20000017
489,161.777950287,23.943663,-0.6666667,3.0379843e-07
490,165.425331116,23.239437,0.0,2.9486318e-07
491,156.4230117795,23.239437,-0.6666667,2.9486318e-07
492,158.68871688824999,22.535212,0.0,2.8592794e-07
493,159.8873672485,22.535212,-0.6666667,2.8592794e-07
494,164.02610778825,21.830986,0.0,2.769927e-07
495,157.40834045424998,21.830986,-0.6666667,2.769927e-07
496,154.18050766,21.12676,0.0,2.6805742e-07
497,162.776237488,21.12676,-0.6666667,2.6805742e-07
498,156.523040771,20.422535,0.0,2.5912217e-07
499,158.707092285,20.422535,-0.6666667,2.5912217e-07
500,159.8640289305,19.71831,0.0,2.5018693e-07
501,163.24985504149998,19.71831,-0.6666667,2.5018693e-07
502,150.36330413849998,19.014084,0.0,2.4125168e-07
503,149.628112793,19.014084,-0.6666667,2.4125168e-07
504,166.19241333,18.309858,0.0,2.3231642e-07
505,164.151184082,18.309858,-0.6666667,2.3231642e-07
506,161.109725952,17.605635,0.0,2.233812e-07
507,150.83288764925,17.605635,-0.6666667,2.233812e-07
508,156.03764152525,16.90141,0.0,2.1444595e-07
509,152.27661705025,16.90141,-0.6666667,2.1444595e-07
510,150.77428245525,16.197184,0.0,2.055107e-07
511,165.473106384,16.197184,-0.6666667,2.055107e-07
512,155.22673797599998,15.492958,0.0,1.9657546e-07
513,159.508037567,15.492958,-0.6666667,1.9657546e-07
514,158.375983238125,14.788733,-0.6666667,1.876402e-07
515,155.683749199,14.084507,0.0,1.7870495e-07
516,154.878455162125,14.084507,-0.6666667,1.7870495e-07
517,157.77006053925,13.380281,0.0,1.697697e-07
518,164.188079834,13.380281,-0.6666667,1.697697e-07
519,135.62490653975,12.676056,0.0,1.6083446e-07
520,151.081618308875,12.676056,-0.6666667,1.6083446e-07
521,161.898975372375,24.647888,0.0,0.100000314
522,151.76754570025,24.647888,-0.6666667,0.100000314
523,156.745967865,23.943663,0.0,0.10000031
524,165.51206207274998,23.943663,-0.6666667,0.10000031
525,163.80765914925,23.239437,0.0,0.1000003
526,146.33548545825,23.239437,-0.6666667,0.1000003
527,150.832132339375,22.535212,0.0,0.100000285
528,157.04106616975,22.535212,-0.6666667,0.100000285
529,152.088352203375,21.830986,0.0,0.10000028
530,154.977138519125,21.830986,-0.6666667,0.10000028
531,160.2840766905,21.12676,0.0,0.10000027
532,156.03722763049998,21.12676,-0.6666667,0.10000027
533,165.46958541875,20.422535,0.0,0.10000026
534,161.860917091375,20.422535,-0.6666667,0.10000026
535,158.2135305405,19.71831,0.0,0.100000255
536,157.81433105475,19.71831,-0.6666667,0.100000255
537,160.74417305,19.014084,0.0,0.10000024
538,159.901866913,19.014084,-0.6666667,0.10000024
539,155.7692375185,18.309858,0.0,0.10000023
540,165.41874694825,18.309858,-0.6666667,0.10000023
541,162.216947555625,17.605635,0.0,0.100000225
542,159.031124115125,17.605635,-0.6666667,0.100000225
543,162.33223152175,16.90141,0.0,0.10000022
544,165.24780082725,16.90141,-0.6666667,0.10000022
545,161.57331275975,16.197184,0.0,0.10000021
546,158.26838684125,16.197184,-0.6666667,0.10000021
547,165.3025894165,15.492958,0.0,0.100000195
548,160.49536514300001,15.492958,-0.6666667,0.100000195
549,157.188262939625,14.788733,0.0,0.10000019
550,161.4870586395,14.788733,-0.6666667,0.10000019
551,162.967933654875,14.084507,0.0,0.10000018
552,157.04368400587498,14.084507,-0.6666667,0.10000018
553,152.43723297124998,13.380281,0.0,0.10000017
554,154.99309921275,13.380281,-0.6666667,0.10000017
555,155.74152565025,12.676056,-0.6666667,0.100000165
556,157.088586807375,24.647888,0.0,0.20000032
557,161.377195358125,24.647888,-0.6666667,0.20000032
558,162.56136322025,23.943663,0.0,0.2000003
559,156.593471527125,23.943663,-0.6666667,0.2000003
560,153.131385803,23.239437,0.0,0.2000003
561,157.20422363275,23.239437,-0.6666667,0.2000003
562,157.697841644375,22.535212,0.0,0.20000029
563,160.73040390025,22.535212,-0.6666667,0.20000029
564,163.77803230275,21.830986,0.0,0.20000029
565,162.2906684875,21.830986,-0.6666667,0.20000029
566,157.516260147125,21.12676,0.0,0.20000027
567,154.73789978025002,21.12676,-0.6666667,0.20000027
568,165.20548248275,20.422535,0.0,0.20000026
569,164.7380924225,20.422535,-0.6666667,0.20000026
570,160.380786895875,19.71831,0.0,0.20000026
571,159.487537384125,19.71831,-0.6666667,0.20000026
572,160.37255287175,19.014084,0.0,0.20000024
573,158.21665763849998,19.014084,-0.6666667,0.20000024
574,158.17241287225,18.309858,0.0,0.20000024
575,162.48814392075,18.309858,-0.6666667,0.20000024
576,161.4419403075,17.605635,0.0,0.20000023
577,157.399450302125,17.605635,-0.6666667,0.20000023
578,157.162263870375,16.90141,0.0,0.20000021
579,158.857133865375,16.90141,-0.6666667,0.20000021
580,159.00137519825,16.197184,0.0,0.20000021
581,160.2098464965,16.197184,-0.6666667,0.20000021
582,161.83453369125,15.492958,0.0,0.2000002
583,160.086400985625,15.492958,-0.6666667,0.2000002
584,157.93301773075,14.788733,0.0,0.2000002
585,157.7962589265,14.788733,-0.6666667,0.2000002
586,159.158727645875,14.084507,0.0,0.20000018
587,160.01890945425,14.084507,-0.6666667,0.20000018
588,159.78511428825,13.380281,0.0,0.20000017
589,161.58008956925,13.380281,-0.6666667,0.20000017
590,159.89165687575,12.676056,-0.6666667,0.20000017
591,158.067016601625,18.309858,2.0,2.3231642e-07
592,157.595495224,18.309858,1.3333334,2.3231642e-07
593,158.91467475899998,18.309858,0.6666667,2.3231642e-07
594,160.16187477112499,17.605635,2.0,2.233812e-07
595,159.75458145125,17.605635,1.3333334,2.233812e-07
596,161.360790253,17.605635,0.6666667,2.233812e-07
597,159.723747253625,16.90141,2.0,2.1444595e-07
598,158.1752147675,16.90141,1.3333334,2.1444595e-07
599,157.81976699825,16.90141,0.6666667,2.1444595e-07
600,158.93713188175,16.197184,2.0,2.055107e-07
601,160.113563537625,16.197184,1.3333334,2.055107e-07
602,159.7286720275,16.197184,0.6666667,2.055107e-07
603,161.17340850850002,15.492958,2.0,1.9657546e-07
604,159.58818626425,15.492958,1.3333334,1.9657546e-07
605,158.280773163,15.492958,0.6666667,1.9657546e-07
606,158.014549255375,14.788733,2.0,1.876402e-07
607,158.956144332875,14.788733,1.3333334,1.876402e-07
608,160.07471466075,14.788733,0.6666667,1.876402e-07
609,159.70765686049998,14.788733,0.0,1.876402e-07
610,161.00567626975,14.084507,2.0,1.7870495e-07
611,159.487771988125,14.084507,1.3333334,1.7870495e-07
612,158.364959716875,14.084507,0.6666667,1.7870495e-07
613,158.152879714875,13.380281,2.0,1.697697e-07
614,158.972414016625,13.380281,1.3333334,1.697697e-07
615,160.04560089125,13.380281,0.6666667,1.697697e-07
616,159.69208145175,12.676056,2.0,1.6083446e-07
617,160.847896576,12.676056,1.3333334,1.6083446e-07
618,159.419734955,12.676056,0.6666667,1.6083446e-07
619,158.411043167125,18.309858,2.0,0.10000023
620,158.21643829325,18.309858,1.3333334,0.10000023
621,158.98649787887499,18.309858,0.6666667,0.10000023
622,160.0263233185,17.605635,2.0,0.100000225
623,159.6820144655,17.605635,1.3333334,0.100000225
624,160.70568466175,17.605635,0.6666667,0.100000225
625,159.380102157625,16.90141,2.0,0.10000022
626,158.454320907625,16.90141,1.3333334,0.10000022
627,158.247350692625,16.90141,0.6666667,0.10000022
628,158.998277664125,16.197184,2.0,0.10000021
629,160.016542434625,16.197184,1.3333334,0.10000021
630,159.6771087645,16.197184,0.6666667,0.10000021
631,160.5854644775,15.492958,2.0,0.100000195
632,159.0354270935,15.492958,1.3333334,0.100000195
633,158.758630752625,15.492958,0.6666667,0.100000195
634,159.19683837887501,14.788733,2.0,0.10000019
635,159.04302215575,14.788733,1.3333334,0.10000019
636,159.805366516125,14.788733,0.6666667,0.10000019
637,159.88649368275,14.084507,2.0,0.10000018
638,160.39027023325,14.084507,1.3333334,0.10000018
639,159.398269653375,14.084507,0.6666667,0.10000018
640,158.888786316,13.380281,2.0,0.10000017
641,158.68246650700002,13.380281,1.3333334,0.10000017
642,159.089807510375,13.380281,0.6666667,0.10000017
643,160.60875511174999,12.676056,2.0,0.100000165
644,161.03152465825,12.676056,1.3333334,0.100000165
645,158.67799377425,18.309858,2.0,0.20000024
646,159.097654342625,18.309858,1.3333334,0.20000024
647,159.01610374462498,18.309858,0.6666667,0.20000024
648,158.76721000675,17.605635,2.0,0.20000023
649,158.03616333,17.605635,1.3333334,0.20000023
650,154.7272081375,17.605635,0.6666667,0.20000023
651,152.40161705025,16.90141,2.0,0.20000021
652,158.27280044550002,16.90141,1.3333334,0.20000021
653,159.034755706875,16.90141,0.6666667,0.20000021
654,159.32195472725,16.197184,2.0,0.20000021
655,160.90093421925,16.197184,1.3333334,0.20000021
656,160.0405540465,16.197184,0.6666667,0.20000021
657,156.75084400175,15.492958,2.0,0.2000002
658,156.37524986275,15.492958,1.3333334,0.2000002
659,159.429260254,15.492958,0.6666667,0.2000002
660,159.151374817,14.788733,2.0,0.2000002
661,159.275140762375,14.788733,1.3333334,0.2000002
662,158.931541442875,14.788733,0.6666667,0.2000002
663,160.765430450375,14.084507,2.0,0.20000018
664,165.621898651,14.084507,1.3333334,0.20000018
665,167.89922714225,14.084507,0.6666667,0.20000018
666,159.84106063824999,13.380281,2.0,0.20000017
667,158.830059051375,13.380281,1.3333334,0.20000017
668,158.973272323625,13.380281,0.6666667,0.20000017
669,158.394073486375,12.676056,2.0,0.20000017
670,159.45942115775,12.676056,1.3333334,0.20000017
671,155.934902191,23.943663,2.0,3.0379843e-07
672,149.6116218565,23.943663,1.3333334,3.0379843e-07
673,160.55847167975,23.943663,0.6666667,3.0379843e-07
674,159.71984291075,23.943663,0.0,3.0379843e-07
675,158.58573532100002,23.239437,2.0,2.9486318e-07
676,157.881143569875,23.239437,1.3333334,2.9486318e-07
677,159.98402976975,23.239437,0.6666667,2.9486318e-07
678,157.145841598375,22.535212,2.0,2.8592794e-07
679,151.79565429675,22.535212,1.3333334,2.8592794e-07
680,160.822242737,22.535212,0.6666667,2.8592794e-07
681,160.096899032625,21.830986,2.0,2.769927e-07
682,158.438072204625,21.830986,1.3333334,2.769927e-07
683,157.564868927,21.830986,0.6666667,2.769927e-07
684,157.67406845074999,21.12676,2.0,2.6805742e-07
685,162.033842086625,21.12676,1.3333334,2.6805742e-07
686,166.34469604475,21.12676,0.6666667,2.6805742e-07
687,160.76583862299998,20.422535,2.0,2.5912217e-07
688,160.06225204462498,20.422535,1.3333334,2.5912217e-07
689,158.46496200575,20.422535,0.6666667,2.5912217e-07
690,160.88397026075,19.71831,2.0,2.5018693e-07
691,160.10661125175,19.71831,1.3333334,2.5018693e-07
692,152.605275154,19.71831,0.6666667,2.5018693e-07
693,149.19400978074998,19.014084,2.0,2.4125168e-07
694,159.924545288,19.014084,1.3333334,2.4125168e-07
695,159.82801246637501,19.014084,0.6666667,2.4125168e-07
696,158.78257560725,24.647888,1.3333334,0.100000314
697,160.010255813625,24.647888,0.6666667,0.100000314
698,160.4033260345,23.943663,2.0,0.10000031
699,154.47903919212501,23.943663,1.3333334,0.10000031
700,150.33826637275,23.943663,0.6666667,0.10000031
701,159.10636520375,23.239437,2.0,0.1000003
702,159.75916290275,23.239437,1.3333334,0.1000003
703,159.23355484,23.239437,0.6666667,0.1000003
704,158.74967384325,22.535212,2.0,0.100000285
705,159.081239700125,22.535212,1.3333334,0.100000285
706,157.3239212035,22.535212,0.6666667,0.100000285
707,155.929561615,21.830986,2.0,0.10000028
708,160.49393844600002,21.830986,1.3333334,0.10000028
709,160.31984329225,21.830986,0.6666667,0.10000028
710,158.668607711875,21.12676,2.0,0.10000027
711,155.698041915875,21.12676,1.3333334,0.10000027
712,159.801311492875,21.12676,0.6666667,0.10000027
713,150.436126709,20.422535,2.0,0.10000026
714,135.47424697875,20.422535,1.3333334,0.10000026
715,162.004047394,20.422535,0.6666667,0.10000026
716,160.814878463875,19.71831,2.0,0.100000255
717,157.928375244125,19.71831,1.3333334,0.100000255
718,155.74448394774998,19.71831,0.6666667,0.100000255
719,156.769517898625,19.014084,2.0,0.10000024
720,151.1341552735,19.014084,1.3333334,0.10000024
721,143.98720169075,19.014084,0.6666667,0.10000024
722,162.24469375625,24.647888,1.3333334,0.20000032
723,160.98478317274999,24.647888,0.6666667,0.20000032
724,157.826921463125,23.943663,2.0,0.2000003
725,160.67972373975,23.943663,1.3333334,0.2000003
726,160.996650695875,23.943663,0.6666667,0.2000003
727,155.917753219625,23.239437,2.0,0.2000003
728,155.27268219,23.239437,1.3333334,0.2000003
729,162.488182068,23.239437,0.6666667,0.2000003
730,161.168272018625,22.535212,2.0,0.20000029
731,157.674047470375,22.535212,1.3333334,0.20000029
732,160.964864731125,22.535212,0.6666667,0.20000029
733,162.473098755,21.830986,2.0,0.20000029
734,147.13997840875,21.830986,1.3333334,0.20000029
735,135.76375579825,21.830986,0.6666667,0.20000029
736,162.7409973145,21.12676,2.0,0.20000027
737,161.37529182437498,21.12676,1.3333334,0.20000027
738,158.940361023,21.12676,0.6666667,0.20000027
739,160.4392204285,20.422535,2.0,0.20000026
740,160.744956970125,20.422535,1.3333334,0.20000026
741,152.062358856,20.422535,0.6666667,0.20000026
742,145.642108917,19.71831,2.0,0.20000026
743,162.360824585,19.71831,1.3333334,0.20000026
744,160.789123535125,19.71831,0.6666667,0.20000026
745,159.16405868525,19.014084,2.0,0.20000024
746,156.633459091125,19.014084,1.3333334,0.20000024
747,160.9793453215,19.014084,0.6666667,0.20000024
748,164.95390701275,35.915493,-1.3333334,4.5569763e-07
749,162.1053466795,35.915493,-2.0,4.5569763e-07
750,161.99624252325,35.21127,-1.3333334,4.467624e-07
751,159.985628128,35.21127,-2.0,4.467624e-07
752,159.04042625425,34.507042,-1.3333334,4.3782714e-07
753,159.257675170875,34.507042,-2.0,4.3782714e-07
754,163.79962348925,33.80282,-1.3333334,4.2889192e-07
755,160.03603935237498,33.80282,-2.0,4.2889192e-07
756,150.88234329225,33.09859,-1.3333334,4.1995665e-07
757,160.3131980895,33.09859,-2.0,4.1995665e-07
758,159.77027130125,32.394367,-1.3333334,4.110214e-07
759,160.682868957625,32.394367,-2.0,4.110214e-07
760,163.055807113625,31.690142,-1.3333334,4.0208616e-07
761,160.68987083425,31.690142,-2.0,4.0208616e-07
762,155.96667099,30.985916,-1.3333334,3.931509e-07
763,154.52682113650002,30.985916,-2.0,3.931509e-07
764,161.96144104,30.28169,-1.3333334,3.8421567e-07
765,162.524108886875,30.28169,-2.0,3.8421567e-07
766,162.830455780125,29.577465,-1.3333334,3.7528042e-07
767,157.57207298275,29.577465,-2.0,3.7528042e-07
768,152.860454559375,28.87324,-1.3333334,3.6634515e-07
769,157.98706245425,28.87324,-2.0,3.6634515e-07
770,162.82322692875,28.169014,-1.3333334,3.574099e-07
771,158.27986526475001,28.169014,-2.0,3.574099e-07
772,160.480127334625,27.464788,-1.3333334,3.4847466e-07
773,160.367160797125,27.464788,-2.0,3.4847466e-07
774,155.575756072875,26.760563,-1.3333334,3.395394e-07
775,156.117450714,26.760563,-2.0,3.395394e-07
776,159.2316589355,26.056337,-1.3333334,3.3060417e-07
777,159.325996399,26.056337,-2.0,3.3060417e-07
778,151.7390174865,25.352112,-1.3333334,3.2166892e-07
779,157.2800655365,25.352112,-2.0,3.2166892e-07
780,159.584974289,24.647888,-1.3333334,3.1273368e-07
781,158.335872650125,24.647888,-2.0,3.1273368e-07
782,159.82947731000002,36.619717,-1.3333334,0.10000046
783,159.00714492775,36.619717,-2.0,0.10000046
784,158.67824554425,35.915493,-1.3333334,0.100000456
785,148.285320282,35.915493,-2.0,0.100000456
786,157.818708419875,35.21127,-1.3333334,0.10000045
787,164.514108657875,35.21127,-2.0,0.10000045
788,160.78077125549999,34.507042,-1.3333334,0.10000044
789,159.01938056950002,34.507042,-2.0,0.10000044
790,158.882081985375,33.80282,-1.3333334,0.100000426
791,159.61082458475,33.80282,-2.0,0.100000426
792,152.82917785625,33.09859,-1.3333334,0.10000042
793,156.735147476125,33.09859,-2.0,0.10000042
794,162.505594253625,32.394367,-1.3333334,0.10000041
795,162.717470169125,32.394367,-2.0,0.10000041
796,159.88521003725,31.690142,-1.3333334,0.100000404
797,159.012332916375,31.690142,-2.0,0.100000404
798,159.31911468524999,30.985916,-1.3333334,0.1000004
799,161.88483047475,30.985916,-2.0,0.1000004
800,156.07003021225,30.28169,-1.3333334,0.10000039
801,158.47845649725,30.28169,-2.0,0.10000039
802,164.11423110975,29.577465,-1.3333334,0.100000374
803,160.066576004,29.577465,-2.0,0.100000374
804,158.66063308725,28.87324,-1.3333334,0.10000037
805,158.71489334125,28.87324,-2.0,0.10000037
806,162.9454460145,28.169014,-1.3333334,0.10000036
807,155.4793634415,28.169014,-2.0,0.10000036
808,158.222100258,27.464788,-0.6666667,0.10000035
809,163.208221435625,27.464788,-1.3333334,0.10000035
810,158.54562950125,27.464788,-2.0,0.10000035
811,159.353143692,26.760563,-0.6666667,0.100000344
812,159.60055160525,26.760563,-1.3333334,0.100000344
813,164.58561706525,26.760563,-2.0,0.100000344
814,152.618203163125,26.056337,-1.3333334,0.10000033
815,155.319630623,26.056337,-2.0,0.10000033
816,165.320362091125,25.352112,-1.3333334,0.10000032
817,160.593725204375,25.352112,-2.0,0.10000032
818,159.922800064,36.619717,-1.3333334,0.20000046
819,159.31040191649998,36.619717,-2.0,0.20000046
820,164.30625534025,35.915493,-1.3333334,0.20000046
821,152.707025527875,35.915493,-2.0,0.20000046
822,155.11972427375,35.21127,-1.3333334,0.20000045
823,165.2646102905,35.21127,-2.0,0.20000045
824,160.288505554125,34.507042,-1.3333334,0.20000044
825,158.959592819125,34.507042,-2.0,0.20000044
826,158.73974227899998,33.80282,-1.3333334,0.20000044
827,162.980003357,33.80282,-2.0,0.20000044
828,155.817117691125,33.09859,-1.3333334,0.20000042
829,157.74667167675,33.09859,-2.0,0.20000042
830,162.586137771625,32.394367,-1.3333334,0.20000042
831,159.10222053525,32.394367,-2.0,0.20000042
832,159.73108291637502,31.690142,-1.3333334,0.2000004
833,159.59088897725002,31.690142,-2.0,0.2000004
834,162.85693740875,30.985916,-1.3333334,0.20000039
835,156.1560554505,30.985916,-2.0,0.20000039
836,157.92275238037502,30.28169,-1.3333334,0.20000039
837,163.142313003625,30.28169,-2.0,0.20000039
838,159.67182350175,29.577465,-1.3333334,0.20000038
839,159.377630234,29.577465,-2.0,0.20000038
840,159.30590820325,28.87324,-1.3333334,0.20000038
841,162.56917190575,28.87324,-2.0,0.20000038
842,156.419425964375,28.169014,-1.3333334,0.20000036
843,158.079555511375,28.169014,-2.0,0.20000036
844,162.72435379025,27.464788,-0.6666667,0.20000035
845,158.877279281625,27.464788,-1.3333334,0.20000035
846,158.4801216125,27.464788,-2.0,0.20000035
847,158.7649612425,26.760563,-0.6666667,0.20000035
848,162.14764785775,26.760563,-1.3333334,0.20000035
849,156.39145469675,26.760563,-2.0,0.20000035
850,157.7655506135,26.056337,-1.3333334,0.20000033
851,162.871168136625,26.056337,-2.0,0.20000033
852,160.342094421375,25.352112,-1.3333334,0.20000033
853,159.712898254375,25.352112,-2.0,0.20000033
854,159.588104248,36.619717,0.0,4.6463285e-07
855,160.4575271605,36.619717,-0.6666667,4.6463285e-07
856,156.812498092625,35.915493,0.0,4.5569763e-07
857,158.129476547375,35.915493,-0.6666667,4.5569763e-07
858,162.615438461375,35.21127,0.0,4.467624e-07
859,160.16747474675,35.21127,-0.6666667,4.467624e-07
860,158.748298645125,34.507042,0.0,4.3782714e-07
861,159.3010406495,34.507042,-0.6666667,4.3782714e-07
862,160.0480117795,33.80282,0.0,4.2889192e-07
863,157.69440650925,33.80282,-0.6666667,4.2889192e-07
864,158.40055465700001,33.09859,0.0,4.1995665e-07
865,160.321950912375,33.09859,-0.6666667,4.1995665e-07
866,158.740219116125,32.394367,0.0,4.110214e-07
867,158.5384025575,32.394367,-0.6666667,4.110214e-07
868,158.7799606325,31.690142,0.0,4.0208616e-07
869,156.99449539175,31.690142,-0.6666667,4.0208616e-07
870,156.59605979924999,30.985916,0.0,3.931509e-07
871,159.198431015125,30.985916,-0.6666667,3.931509e-07
872,160.96168327325,30.28169,0.0,3.8421567e-07
873,159.7936553955,30.28169,-0.6666667,3.8421567e-07
874,159.724882126,29.577465,0.0,3.7528042e-07
875,159.586582184,29.577465,-0.6666667,3.7528042e-07
876,157.49152374275,28.87324,0.0,3.6634515e-07
877,158.151947021625,28.87324,-0.6666667,3.6634515e-07
878,159.651422500625,28.169014,0.0,3.574099e-07
879,160.272817611625,28.169014,-0.6666667,3.574099e-07
880,158.92000007625,27.464788,0.0,3.4847466e-07
881,158.542695999,27.464788,-0.6666667,3.4847466e-07
882,159.300552368,26.760563,0.0,3.395394e-07
883,161.51265335074999,26.760563,-0.6666667,3.395394e-07
884,160.473606109625,26.056337,0.0,3.3060417e-07
885,159.135923385625,26.056337,-0.6666667,3.3060417e-07
886,159.905374526875,25.352112,0.0,3.2166892e-07
887,159.94862174975,25.352112,-0.6666667,3.2166892e-07
888,153.854589462125,24.647888,0.0,3.1273368e-07
889,148.78539657574999,24.647888,-0.6666667,3.1273368e-07
890,159.20204925525002,36.619717,0.0,0.10000046
891,159.26812171925002,36.619717,-0.6666667,0.10000046
892,159.39938545237501,35.915493,0.0,0.100000456
893,160.277261734125,35.915493,-0.6666667,0.100000456
894,160.08363533025,35.21127,0.0,0.10000045
895,147.277009010375,35.21127,-0.6666667,0.10000045
896,135.47669410700001,34.507042,0.0,0.10000044
897,158.42487716675,34.507042,-0.6666667,0.10000044
898,159.143842697125,33.80282,0.0,0.100000426
899,159.523748397875,33.80282,-0.6666667,0.100000426
900,159.2687187195,33.09859,0.0,0.10000042
901,159.2838020325,33.09859,-0.6666667,0.10000042
902,153.759522438125,32.394367,0.0,0.10000041
903,148.30418968200001,32.394367,-0.6666667,0.10000041
904,159.7718429565,31.690142,0.0,0.100000404
905,159.3479919435,31.690142,-0.6666667,0.100000404
906,159.14594650275,30.985916,0.0,0.1000004
907,159.43505477899998,30.985916,-0.6666667,0.1000004
908,159.185760498,30.28169,0.0,0.10000039
909,154.604086875875,30.28169,-0.6666667,0.10000039
910,150.33901023875,29.577465,0.0,0.100000374
911,160.1475868225,29.577465,-0.6666667,0.100000374
912,159.30663299575,28.87324,0.0,0.10000037
913,158.79121589675,28.87324,-0.6666667,0.10000037
914,159.99706649787498,28.169014,0.0,0.10000036
915,159.382099151625,28.169014,-0.6666667,0.10000036
916,153.540766716,27.464788,0.0,0.10000035
917,149.1947155,26.760563,0.0,0.100000344
918,160.120113373,26.056337,0.0,0.10000033
919,159.30299758925,26.056337,-0.6666667,0.10000033
920,158.799961090125,25.352112,0.0,0.10000032
921,159.477369308375,25.352112,-0.6666667,0.10000032
922,160.43505287175,36.619717,0.0,0.20000046
923,163.687097549625,36.619717,-0.6666667,0.20000046
924,166.34478759775,35.915493,0.0,0.20000046
925,160.1031723025,35.915493,-0.6666667,0.20000046
926,159.300807953,35.21127,0.0,0.20000045
927,158.803653717,35.21127,-0.6666667,0.20000045
928,158.52544975275,34.507042,0.0,0.20000044
929,158.73078537,34.507042,-0.6666667,0.20000044
930,155.6577425005,33.80282,0.0,0.20000044
931,151.795949936,33.80282,-0.6666667,0.20000044
932,160.09575653075,33.09859,-0.6666667,0.20000042
933,159.299947738625,32.394367,0.0,0.20000042
934,158.803035736125,32.394367,-0.6666667,0.20000042
935,160.211166381875,31.690142,0.0,0.2000004
936,159.430894851625,31.690142,-0.6666667,0.2000004
937,153.576642036375,30.985916,0.0,0.20000039
938,149.6118946075,30.985916,-0.6666667,0.20000039
939,158.59536361675,30.28169,0.0,0.20000039
940,158.897903442375,30.28169,-0.6666667,0.20000039
941,158.40748977675,29.577465,0.0,0.20000038
942,157.79443931575,29.577465,-0.6666667,0.20000038
943,160.235183715625,28.87324,0.0,0.20000038
944,165.1976356505,28.87324,-0.6666667,0.20000038
945,167.89924621575,28.169014,0.0,0.20000036
946,157.59437561024998,28.169014,-0.6666667,0.20000036
947,158.334230423125,27.464788,0.0,0.20000035
948,158.36276435874998,26.760563,0.0,0.20000035
949,157.41753578175,26.056337,0.0,0.20000033
950,157.4532871245,26.056337,-0.6666667,0.20000033
951,157.049142837625,25.352112,0.0,0.20000033
952,156.37533950825,25.352112,-0.6666667,0.20000033
953,160.352333069,30.28169,2.0,3.8421567e-07
954,160.456319809125,30.28169,1.3333334,3.8421567e-07
955,160.097047805875,30.28169,0.6666667,3.8421567e-07
956,160.880462646375,29.577465,2.0,3.7528042e-07
957,159.600194931,29.577465,1.3333334,3.7528042e-07
958,156.053106308125,29.577465,0.6666667,3.7528042e-07
959,155.0329589845,28.87324,2.0,3.6634515e-07
960,162.48819351225,28.87324,1.3333334,3.6634515e-07
961,161.9051685335,28.87324,0.6666667,3.6634515e-07
962,159.618543624875,28.169014,2.0,3.574099e-07
963,159.407123565625,28.169014,1.3333334,3.574099e-07
964,160.287960052625,28.169014,0.6666667,3.574099e-07
965,164.4707107545,27.464788,2.0,3.4847466e-07
966,169.26480484,27.464788,1.3333334,3.4847466e-07
967,160.7323036195,27.464788,0.6666667,3.4847466e-07
968,160.56614685075,26.760563,2.0,3.395394e-07
969,158.392766952625,26.760563,1.3333334,3.395394e-07
970,158.458982467625,26.760563,0.6666667,3.395394e-07
971,159.625377655,26.056337,2.0,3.3060417e-07
972,157.9692401885,26.056337,1.3333334,3.3060417e-07
973,157.220146179,26.056337,0.6666667,3.3060417e-07
974,159.10472869875,25.352112,2.0,3.2166892e-07
975,160.023843765375,25.352112,1.3333334,3.2166892e-07
976,159.22492218025,25.352112,0.6666667,3.2166892e-07
977,156.008855819625,24.647888,2.0,3.1273368e-07
978,159.954423904375,24.647888,1.3333334,3.1273368e-07
979,159.931978225625,24.647888,0.6666667,3.1273368e-07
980,154.46593475325,30.28169,2.0,0.10000039
981,159.1070137025,30.28169,1.3333334,0.10000039
982,159.947444915875,30.28169,0.6666667,0.10000039
983,159.39931488037502,29.577465,2.0,0.100000374
984,156.6343364715,29.577465,1.3333334,0.100000374
985,156.769506454625,29.577465,0.6666667,0.100000374
986,163.2985019685,28.87324,2.0,0.10000037
987,168.31591033925,28.87324,1.3333334,0.10000037
988,159.1036376955,28.87324,0.6666667,0.10000037
989,159.87862014774998,28.169014,2.0,0.10000036
990,159.369224548375,28.169014,1.3333334,0.10000036
991,161.75766181962499,28.169014,0.6666667,0.10000036
992,161.030153274625,27.464788,2.0,0.10000035
993,157.840921402,27.464788,1.3333334,0.10000035
994,159.05201339725,27.464788,0.6666667,0.10000035
995,159.100227356,26.760563,2.0,0.100000344
996,159.821039199875,26.760563,1.3333334,0.100000344
997,159.35408973699998,26.760563,0.6666667,0.100000344
998,162.264650345,26.056337,2.0,0.10000033
999,162.23139190675,26.056337,1.3333334,0.10000033
1000,157.05775260925,26.056337,0.6666667,0.10000033
1001,156.01569366475,25.352112,2.0,0.10000032
1002,159.0985183715,25.352112,1.3333334,0.10000032
1003,159.79500198375,25.352112,0.6666667,0.10000032
1004,159.35033798224998,24.647888,2.0,0.100000314
1005,161.52126693725,30.28169,2.0,0.20000039
1006,158.03278732299998,30.28169,1.3333334,0.20000039
1007,157.9991874695,30.28169,0.6666667,0.20000039
1008,164.766143799,29.577465,2.0,0.20000038
1009,160.864501953,29.577465,1.3333334,0.20000038
1010,158.4179611205,29.577465,0.6666667,0.20000038
1011,162.70252990699998,28.87324,2.0,0.20000038
1012,168.3521728515,28.87324,1.3333334,0.20000038
1013,137.7344932555,28.87324,0.6666667,0.20000038
1014,139.9950752255,28.169014,2.0,0.20000036
1015,171.791870117,28.169014,1.3333334,0.20000036
1016,148.97144317599998,28.169014,0.6666667,0.20000036
1017,155.5797805785,27.464788,2.0,0.20000035
1018,163.52714538575,27.464788,1.3333334,0.20000035
1019,167.26351165775,27.464788,0.6666667,0.20000035
1020,152.7473163605,26.760563,2.0,0.20000035
1021,150.71916008,26.760563,1.3333334,0.20000035
1022,165.604537964,26.760563,0.6666667,0.20000035
1023,130.648773193,26.056337,2.0,0.20000033
1024,147.7811775205,26.056337,1.3333334,0.20000033
1025,165.34541702274998,26.056337,0.6666667,0.20000033
1026,158.45587921150002,25.352112,2.0,0.20000033
1027,157.63527297975,25.352112,1.3333334,0.20000033
1028,162.43431091325,25.352112,0.6666667,0.20000033
1029,160.7325820925,24.647888,2.0,0.20000032
1030,144.16503143300002,35.915493,2.0,4.5569763e-07
1031,155.0110549925,35.915493,1.3333334,4.5569763e-07
1032,166.311340332,35.915493,0.6666667,4.5569763e-07
1033,149.6708602905,35.21127,2.0,4.467624e-07
1034,147.00777435275,35.21127,1.3333334,4.467624e-07
1035,154.46826553325,35.21127,0.6666667,4.467624e-07
1036,147.49710083,34.507042,2.0,4.3782714e-07
1037,161.1851501465,34.507042,1.3333334,4.3782714e-07
1038,164.97974014275002,34.507042,0.6666667,4.3782714e-07
1039,159.133228302,33.80282,2.0,4.2889192e-07
1040,150.17634964,33.80282,1.3333334,4.2889192e-07
1041,156.02938842775,33.80282,0.6666667,4.2889192e-07
1042,154.2855415345,33.09859,2.0,4.1995665e-07
1043,147.3728790285,33.09859,1.3333334,4.1995665e-07
1044,162.33660888650002,33.09859,0.6666667,4.1995665e-07
1045,157.70839691150002,32.394367,2.0,4.110214e-07
1046,152.23866271974998,32.394367,1.3333334,4.110214e-07
1047,157.84116745,32.394367,0.6666667,4.110214e-07
1048,165.09238815325,31.690142,2.0,4.0208616e-07
1049,164.83920288125,31.690142,1.3333334,4.0208616e-07
1050,163.778823853,31.690142,0.6666667,4.0208616e-07
1051,164.0657577515,30.985916,2.0,3.931509e-07
1052,157.16921234149999,30.985916,1.3333334,3.931509e-07
1053,152.29203414925,30.985916,0.6666667,3.931509e-07
1054,158.79969787574998,36.619717,2.0,0.10000046
1055,162.9375,36.619717,1.3333334,0.10000046
1056,158.78578567525,36.619717,0.6666667,0.10000046
1057,154.984565735,35.915493,2.0,0.100000456
1058,148.7836303715,35.915493,1.3333334,0.100000456
1059,150.29180526775,35.915493,0.6666667,0.100000456
1060,152.59671020525,35.21127,2.0,0.10000045
1061,158.83314132675,35.21127,1.3333334,0.10000045
1062,160.922164917,35.21127,0.6666667,0.10000045
1063,151.6471710205,34.507042,2.0,0.10000044
1064,145.722854614,34.507042,1.3333334,0.10000044
1065,151.0713653565,34.507042,0.6666667,0.10000044
1066,152.3591575625,33.80282,2.0,0.100000426
1067,158.00533676175002,33.80282,1.3333334,0.100000426
1068,162.96146392825,33.80282,0.6666667,0.100000426
1069,162.21657943725,33.09859,2.0,0.10000042
1070,158.00457763675,33.09859,1.3333334,0.10000042
1071,155.1352005005,33.09859,0.6666667,0.10000042
1072,164.038002014,32.394367,2.0,0.10000041
1073,163.669368744,32.394367,1.3333334,0.10000041
1074,158.140110016,32.394367,0.6666667,0.10000041
1075,157.34767913825,31.690142,2.0,0.100000404
1076,159.40496826175,31.690142,1.3333334,0.100000404
1077,160.28997802725,31.690142,0.6666667,0.100000404
1078,163.4858932495,30.985916,2.0,0.1000004
1079,161.515686035,30.985916,1.3333334,0.1000004
1080,160.383365631,30.985916,0.6666667,0.1000004
1081,156.89933395375,36.619717,2.0,0.20000046
1082,156.40108108524998,36.619717,1.3333334,0.20000046
1083,156.59501266475,36.619717,0.6666667,0.20000046
1084,158.1694717405,35.915493,2.0,0.20000046
1085,161.40345764149998,35.915493,1.3333334,0.20000046
1086,161.1337738035,35.915493,0.6666667,0.20000046
1087,159.16788864125,35.21127,2.0,0.20000045
1088,160.33759689325,35.21127,1.3333334,0.20000045
1089,160.007549286,35.21127,0.6666667,0.20000045
1090,158.24773406999998,34.507042,2.0,0.20000044
1091,159.41563797,34.507042,1.3333334,0.20000044
1092,158.87771606450002,34.507042,0.6666667,0.20000044
1093,160.9200057985,33.80282,2.0,0.20000044
1094,159.03046798725,33.80282,1.3333334,0.20000044
1095,160.17201995850002,33.80282,0.6666667,0.20000044
1096,159.9615859985,33.09859,2.0,0.20000042
1097,158.30964279199998,33.09859,1.3333334,0.20000042
1098,159.3952331545,33.09859,0.6666667,0.20000042
1099,158.891242981,33.09859,0.0,0.20000042
1100,160.7382431035,32.394367,2.0,0.20000042
1101,158.9121704105,32.394367,1.3333334,0.20000042
1102,160.00804901125,32.394367,0.6666667,0.20000042
1103,159.89989852899998,31.690142,2.0,0.2000004
1104,158.3616638185,31.690142,1.3333334,0.2000004
1105,159.3774261475,31.690142,0.6666667,0.2000004
1106,158.901321411,30.985916,2.0,0.20000039
1107,160.588523865,30.985916,1.3333334,0.20000039
1108,158.82021713275,30.985916,0.6666667,0.20000039
1109,159.84868621825,42.957745,0.0,5.450501e-07
1110,159.8191719055,42.957745,-0.6666667,5.450501e-07
1111,158.4047584535,42.957745,-1.3333334,5.450501e-07
1112,159.36274337775,42.957745,-2.0,5.450501e-07
1113,158.9088516235,42.25352,0.0,5.3611484e-07
1114,160.459312439,42.25352,-0.6666667,5.3611484e-07
1115,158.76685714725,42.25352,-1.3333334,5.3611484e-07
1116,159.72158050525002,42.25352,-2.0,5.3611484e-07
1117,159.72975158675,41.549297,0.0,5.271796e-07
1118,158.43992233275,41.549297,-0.6666667,5.271796e-07
1119,159.35213470475,41.549297,-1.3333334,5.271796e-07
1120,158.9151687625,41.549297,-2.0,5.271796e-07
1121,160.34160614,40.84507,0.0,5.1824435e-07
1122,158.7569503785,40.84507,-0.6666667,5.1824435e-07
1123,159.63872528075,40.84507,-1.3333334,5.1824435e-07
1124,159.63462829575,40.84507,-2.0,5.1824435e-07
1125,158.467716217,40.140846,0.0,5.0930913e-07
1126,159.3456840515,40.140846,-0.6666667,5.0930913e-07
1127,158.920036316,40.140846,-1.3333334,5.0930913e-07
1128,160.24152374250002,40.140846,-2.0,5.0930913e-07
1129,158.777557373,39.43662,0.0,5.0037386e-07
1130,159.58978271475002,39.43662,-0.6666667,5.0037386e-07
1131,159.53965759275,39.43662,-1.3333334,5.0037386e-07
1132,158.48798370375,39.43662,-2.0,5.0037386e-07
1133,159.3427848815,38.732395,0.0,4.9143864e-07
1134,158.922943115,38.732395,-0.6666667,4.9143864e-07
1135,160.15980529799998,38.732395,-1.3333334,4.9143864e-07
1136,158.4839668275,38.732395,-2.0,4.9143864e-07
1137,159.049369812,38.028168,0.0,4.8250337e-07
1138,159.9659957885,38.028168,-0.6666667,4.8250337e-07
1139,159.49801254275,38.028168,-1.3333334,4.8250337e-07
1140,159.84895706175,38.028168,-2.0,4.8250337e-07
1141,159.343269348,37.323944,0.0,4.7356812e-07
1142,160.898353577,37.323944,-0.6666667,4.7356812e-07
1143,159.76128006,37.323944,-1.3333334,4.7356812e-07
1144,158.8796691895,37.323944,-2.0,4.7356812e-07
1145,156.7741241455,36.619717,-1.3333334,4.6463285e-07
1146,158.35052490225002,36.619717,-2.0,4.6463285e-07
1147,162.546432495,42.957745,0.0,0.100000545
1148,162.8049316405,42.957745,-0.6666667,0.100000545
1149,159.0985183715,42.957745,-1.3333334,0.100000545
1150,160.27390670775,42.957745,-2.0,0.100000545
1151,159.786380768,42.25352,0.0,0.10000054
1152,156.31685256974998,42.25352,-0.6666667,0.10000054
1153,155.2111434935,42.25352,-1.3333334,0.10000054
1154,150.44825553875,42.25352,-2.0,0.10000054
1155,144.984462738,41.549297,0.0,0.10000053
1156,157.689918518,41.549297,-0.6666667,0.10000053
1157,159.33813476575,41.549297,-1.3333334,0.10000053
1158,159.58946609525,41.549297,-2.0,0.10000053
1159,160.1663131715,40.84507,0.0,0.100000516
1160,158.23707962025,40.84507,-0.6666667,0.100000516
1161,150.71862602225,40.84507,-1.3333334,0.100000516
1162,147.10313797,40.84507,-2.0,0.100000516
1163,158.86827087400002,40.140846,0.0,0.10000051
1164,158.63527297975,40.140846,-0.6666667,0.10000051
1165,158.79314041150002,40.140846,-1.3333334,0.10000051
1166,157.00334548975,40.140846,-2.0,0.10000051
1167,158.64771652225,39.43662,0.0,0.1000005
1168,164.80416870099998,39.43662,-0.6666667,0.1000005
1169,167.1355895995,39.43662,-1.3333334,0.1000005
1170,159.3911056515,39.43662,-2.0,0.1000005
1171,158.34255981425,38.732395,0.0,0.10000049
1172,159.1846961975,38.732395,-0.6666667,0.10000049
1173,157.11433029175,38.732395,-1.3333334,0.10000049
1174,157.13470458975002,38.732395,-2.0,0.10000049
1175,148.430820465,38.028168,0.0,0.100000486
1176,135.745513916,38.028168,-0.6666667,0.100000486
1177,160.231124878,38.028168,-1.3333334,0.100000486
1178,159.3100738525,38.028168,-2.0,0.100000486
1179,158.783428192,37.323944,0.0,0.10000047
1180,160.07519912700002,37.323944,-0.6666667,0.10000047
1181,161.1570739745,37.323944,-1.3333334,0.10000047
1182,149.69757843025002,37.323944,-2.0,0.10000047
1183,138.05357360850002,42.957745,0.0,0.20000055
1184,160.534439087,42.957745,-0.6666667,0.20000055
1185,159.71989822375,42.957745,-1.3333334,0.20000055
1186,157.97111511225,42.957745,-2.0,0.20000055
1187,159.0648498535,42.25352,0.0,0.20000054
1188,157.1853866575,42.25352,-0.6666667,0.20000054
1189,158.94248199449999,42.25352,-1.3333334,0.20000054
1190,164.607017517,42.25352,-2.0,0.20000054
1191,160.490158081,41.549297,0.0,0.20000052
1192,159.70123672475,41.549297,-0.6666667,0.20000052
1193,158.0178871155,41.549297,-1.3333334,0.20000052
1194,160.15173721325,41.549297,-2.0,0.20000052
1195,157.2959480285,40.84507,0.0,0.20000052
1196,144.77165031425,40.84507,-0.6666667,0.20000052
1197,138.13142013549998,40.84507,-1.3333334,0.20000052
1198,160.7213134765,40.84507,-2.0,0.20000052
1199,160.0329704285,40.140846,0.0,0.20000051
1200,158.265586853,40.140846,-0.6666667,0.20000051
1201,159.44536590575,40.140846,-1.3333334,0.20000051
1202,163.18529129025,40.140846,-2.0,0.20000051
1203,151.62012672424999,39.43662,0.0,0.20000051
1204,138.573856354,39.43662,-0.6666667,0.20000051
1205,161.5504302975,39.43662,-1.3333334,0.20000051
1206,160.7797927855,39.43662,-2.0,0.20000051
1207,158.63233566275,38.732395,0.0,0.2000005
1208,157.08074569675,38.732395,-0.6666667,0.2000005
1209,160.81164169275002,38.732395,-1.3333334,0.2000005
1210,157.2812919615,38.732395,-2.0,0.2000005
1211,149.84527587899998,38.028168,0.0,0.20000048
1212,161.75053405749998,38.028168,-0.6666667,0.20000048
1213,160.63747024525,38.028168,-1.3333334,0.20000048
1214,157.969329834,38.028168,-2.0,0.20000048
1215,151.47066879275002,37.323944,0.0,0.20000048
1216,155.25798416125,37.323944,-0.6666667,0.20000048
1217,147.15847015375,37.323944,-1.3333334,0.20000048
1218,130.32805633549998,37.323944,-2.0,0.20000048
1219,161.4735717775,42.957745,2.0,5.450501e-07
1220,160.15631485,42.957745,1.3333334,5.450501e-07
1221,157.101512909,42.957745,0.6666667,5.450501e-07
1222,152.406188965,42.25352,2.0,5.3611484e-07
1223,151.002182007,42.25352,1.3333334,5.3611484e-07
1224,147.061870575,42.25352,0.6666667,5.3611484e-07
1225,141.5677871705,41.549297,2.0,5.271796e-07
1226,161.6751327515,41.549297,1.3333334,5.271796e-07
1227,160.2943382265,41.549297,0.6666667,5.271796e-07
1228,156.86287689225,40.84507,2.0,5.1824435e-07
1229,159.068790436,40.84507,1.3333334,5.1824435e-07
1230,156.77096557625,40.84507,0.6666667,5.1824435e-07
1231,149.63430023175,40.140846,2.0,5.0930913e-07
1232,149.0520401,40.140846,1.3333334,5.0930913e-07
1233,161.8878479005,40.140846,0.6666667,5.0930913e-07
1234,160.45586395275,39.43662,2.0,5.0037386e-07
1235,156.47885513325,39.43662,1.3333334,5.0037386e-07
1236,161.17021942175,39.43662,0.6666667,5.0037386e-07
1237,167.537879944,38.732395,2.0,4.9143864e-07
1238,148.75107765175,38.732395,1.3333334,4.9143864e-07
1239,130.8330039975,38.732395,0.6666667,4.9143864e-07
1240,162.12554931649998,38.028168,2.0,4.8250337e-07
1241,160.65404129025,38.028168,1.3333334,4.8250337e-07
1242,158.90472412100002,38.028168,0.6666667,4.8250337e-07
1243,164.62087631225,37.323944,2.0,4.7356812e-07
1244,168.9760017395,37.323944,1.3333334,4.7356812e-07
1245,155.80560874924998,37.323944,0.6666667,4.7356812e-07
1246,144.274051666,36.619717,2.0,4.6463285e-07
1247,161.6977005005,36.619717,1.3333334,4.6463285e-07
1248,159.96502304075,36.619717,0.6666667,4.6463285e-07
1249,161.1109428405,42.957745,2.0,0.100000545
1250,158.137535095,42.957745,1.3333334,0.100000545
1251,159.52448272675,42.957745,0.6666667,0.100000545
1252,163.40257644625,42.25352,2.0,0.10000054
1253,160.041717529,42.25352,1.3333334,0.10000054
1254,161.263458252,42.25352,0.6666667,0.10000054
1255,161.07969665525,41.549297,2.0,0.10000053
1256,161.90750122075,41.549297,1.3333334,0.10000053
1257,158.223701477,41.549297,0.6666667,0.10000053
1258,161.99007034275002,40.84507,2.0,0.100000516
1259,166.63829421975,40.84507,1.3333334,0.100000516
1260,162.824783325,40.84507,0.6666667,0.100000516
1261,159.325592041,40.140846,2.0,0.10000051
1262,161.2413368225,40.140846,1.3333334,0.10000051
1263,163.568763733,40.140846,0.6666667,0.10000051
1264,164.07245254525,39.43662,2.0,0.1000005
1265,166.91381835925,39.43662,1.3333334,0.1000005
1266,167.574028015,39.43662,0.6666667,0.1000005
1267,165.48487854,38.732395,2.0,0.10000049
1268,160.794944763,38.732395,1.3333334,0.10000049
1269,161.88912963875,38.732395,0.6666667,0.10000049
1270,165.19455719,38.028168,2.0,0.100000486
1271,162.22504806525,38.028168,1.3333334,0.100000486
1272,159.8348731995,38.028168,0.6666667,0.100000486
1273,161.6167526245,37.323944,2.0,0.10000047
1274,160.608055115,37.323944,1.3333334,0.10000047
1275,166.8116073605,37.323944,0.6666667,0.10000047
1276,164.032924652,42.957745,2.0,0.20000055
1277,164.96408462525,42.957745,1.3333334,0.20000055
1278,163.4603767395,42.957745,0.6666667,0.20000055
1279,157.72308349600002,42.25352,2.0,0.20000054
1280,158.041481018,42.25352,1.3333334,0.20000054
1281,158.883621216,42.25352,0.6666667,0.20000054
1282,169.537765503,41.549297,2.0,0.20000052
1283,165.44346618650002,41.549297,1.3333334,0.20000052
1284,162.40092086800001,41.549297,0.6666667,0.20000052
1285,161.64502716075,40.84507,2.0,0.20000052
1286,159.07576370225001,40.84507,1.3333334,0.20000052
1287,158.914424896,40.84507,0.6666667,0.20000052
1288,159.514701843,40.140846,2.0,0.20000051
1289,149.9921875,40.140846,1.3333334,0.20000051
1290,157.950000763,40.140846,0.6666667,0.20000051
1291,162.984817505,39.43662,2.0,0.20000051
1292,159.81797027599998,39.43662,1.3333334,0.20000051
1293,158.56241989149999,39.43662,0.6666667,0.20000051
1294,159.040512085,38.732395,2.0,0.2000005
1295,160.530303955,38.732395,1.3333334,0.2000005
1296,144.81417846649998,38.732395,0.6666667,0.2000005
1297,157.0651512145,38.028168,2.0,0.20000048
1298,165.73881530775,38.028168,1.3333334,0.20000048
1299,161.099597931,38.028168,0.6666667,0.20000048
1300,159.10717391974998,37.323944,2.0,0.20000048
1301,158.537036896,37.323944,1.3333334,0.20000048
1302,158.8974151615,37.323944,0.6666667,0.20000048
1303,159.8571243285,46.478874,2.0,5.8972637e-07
1304,165.75524902325,46.478874,1.3333334,5.8972637e-07
1305,167.99268341075,46.478874,0.6666667,5.8972637e-07
1306,162.30362701425,46.478874,0.0,5.8972637e-07
1307,159.162624359,46.478874,-0.6666667,5.8972637e-07
1308,158.78023910525,46.478874,-1.3333334,5.8972637e-07
1309,159.5104904175,46.478874,-2.0,5.8972637e-07
1310,160.85866546649999,45.774647,2.0,5.807911e-07
1311,166.3343200685,45.774647,1.3333334,5.807911e-07
1312,169.3162269595,45.774647,0.6666667,5.807911e-07
1313,162.037136078,45.774647,0.0,5.807911e-07
1314,157.89079666125,45.774647,-0.6666667,5.807911e-07
1315,159.4982032775,45.774647,-1.3333334,5.807911e-07
1316,160.46660614,45.774647,-2.0,5.807911e-07
1317,162.683883667,45.070423,2.0,5.718559e-07
1318,151.24548721325,45.070423,1.3333334,5.718559e-07
1319,154.371448517,45.070423,0.6666667,5.718559e-07
1320,165.49541091925,45.070423,0.0,5.718559e-07
1321,160.99672698975002,45.070423,-0.6666667,5.718559e-07
1322,159.42135620125,45.070423,-1.3333334,5.718559e-07
1323,158.904273987,45.070423,-2.0,5.718559e-07
1324,162.86541748000002,44.366196,2.0,5.629206e-07
1325,143.171848297,44.366196,1.3333334,5.629206e-07
1326,145.9143333435,44.366196,0.6666667,5.629206e-07
1327,165.551635742,44.366196,0.0,5.629206e-07
1328,161.6332206725,44.366196,-0.6666667,5.629206e-07
1329,160.00906372075,44.366196,-1.3333334,5.629206e-07
1330,159.50457000749998,44.366196,-2.0,5.629206e-07
1331,161.783126831,43.661972,2.0,5.539854e-07
1332,150.36028671275,43.661972,1.3333334,5.539854e-07
1333,152.42960357675,43.661972,0.6666667,5.539854e-07
1334,162.86287307725001,43.661972,0.0,5.539854e-07
1335,160.55939483625,43.661972,-0.6666667,5.539854e-07
1336,160.8658714295,43.661972,-1.3333334,5.539854e-07
1337,160.416938782,43.661972,-2.0,5.539854e-07
1338,161.71263122599998,47.183098,2.0,0.1000006
1339,151.08782959,47.183098,1.3333334,0.1000006
1340,153.00497436525,47.183098,0.6666667,0.1000006
1341,163.530090332,47.183098,0.0,0.1000006
1342,160.117351532,46.478874,2.0,0.10000059
1343,158.81724548350002,46.478874,1.3333334,0.10000059
1344,158.9130477905,46.478874,0.6666667,0.10000059
1345,161.45375824,46.478874,0.0,0.10000059
1346,151.8515701295,46.478874,-0.6666667,0.10000059
1347,153.65674209600002,46.478874,-1.3333334,0.10000059
1348,161.92692947375002,46.478874,-2.0,0.10000059
1349,159.35281753525,45.774647,2.0,0.10000058
1350,159.710571289,45.774647,1.3333334,0.10000058
1351,159.50526428199998,45.774647,0.6666667,0.10000058
1352,161.04132843,45.774647,0.0,0.10000058
1353,152.20797348025,45.774647,-0.6666667,0.10000058
1354,153.50656509425,45.774647,-1.3333334,0.10000058
1355,161.85226440425,45.774647,-2.0,0.10000058
1356,160.8933639525,45.070423,2.0,0.100000575
1357,161.05101776125,45.070423,1.3333334,0.100000575
1358,160.381324768,45.070423,0.6666667,0.100000575
1359,159.1684494015,45.070423,0.0,0.100000575
1360,156.9579315185,45.070423,-0.6666667,0.100000575
1361,158.06054687525,45.070423,-1.3333334,0.100000575
1362,161.24787902825,45.070423,-2.0,0.100000575
1363,159.01216888425,44.366196,2.0,0.10000056
1364,157.90947341925,44.366196,1.3333334,0.10000056
1365,158.91668701150002,44.366196,0.6666667,0.10000056
1366,161.133148193,44.366196,0.0,0.10000056
1367,162.728412628,44.366196,-0.6666667,0.10000056
1368,162.24418258675001,44.366196,-1.3333334,0.10000056
1369,160.70790863025002,44.366196,-2.0,0.10000056
1370,159.118068695,43.661972,2.0,0.10000055
1371,158.24515914925001,43.661972,1.3333334,0.10000055
1372,159.50531005850002,43.661972,0.6666667,0.10000055
1373,156.58179473849998,43.661972,0.0,0.10000055
1374,156.60446929924998,43.661972,-0.6666667,0.10000055
1375,159.314216614,43.661972,-1.3333334,0.10000055
1376,162.08843612675,43.661972,-2.0,0.10000055
1377,160.584953308,47.183098,2.0,0.2000006
1378,159.67713928224998,47.183098,1.3333334,0.2000006
1379,160.359954834,47.183098,0.6666667,0.2000006
1380,155.55531311049998,47.183098,0.0,0.2000006
1381,155.562049866,46.478874,2.0,0.2000006
1382,158.191043854,46.478874,1.3333334,0.2000006
1383,159.97048568725,46.478874,0.6666667,0.2000006
1384,159.7593040465,46.478874,0.0,0.2000006
1385,159.65670394875,46.478874,-0.6666667,0.2000006
1386,158.9224700925,46.478874,-1.3333334,0.2000006
1387,161.6578826905,46.478874,-2.0,0.2000006
1388,160.590625763,45.774647,2.0,0.20000058
1389,158.898513794,45.774647,1.3333334,0.20000058
1390,159.170639038,45.774647,0.6666667,0.20000058
1391,160.86303329449999,45.774647,0.0,0.20000058
1392,150.91522979725,45.774647,-0.6666667,0.20000058
1393,140.17201232899998,45.774647,-1.3333334,0.20000058
1394,158.8069229125,45.774647,-2.0,0.20000058
1395,158.84292602525,45.070423,2.0,0.20000057
1396,159.35030365,45.070423,1.3333334,0.20000057
1397,160.64078140275,45.070423,0.6666667,0.20000057
1398,161.8047447205,45.070423,0.0,0.20000057
1399,142.9831676485,45.070423,-0.6666667,0.20000057
1400,123.8167304995,45.070423,-1.3333334,0.20000057
1401,157.94712066649998,45.070423,-2.0,0.20000057
1402,158.68595886225,44.366196,2.0,0.20000057
1403,160.250087738,44.366196,1.3333334,0.20000057
1404,161.35881805425,44.366196,0.6666667,0.20000057
1405,161.961971283,44.366196,0.0,0.20000057
1406,152.80711174025,44.366196,-0.6666667,0.20000057
1407,143.332538605,44.366196,-1.3333334,0.20000057
1408,159.360710144,44.366196,-2.0,0.20000057
1409,158.90189743050001,43.661972,2.0,0.20000055
1410,159.849899292,43.661972,1.3333334,0.20000055
1411,161.5842170715,43.661972,0.6666667,0.20000055
1412,162.21351623524998,43.661972,0.0,0.20000055
1413,150.54522132875,43.661972,-0.6666667,0.20000055
1414,138.575130463,43.661972,-1.3333334,0.20000055
1415,159.8050231935,43.661972,-2.0,0.20000055
1416,158.91203689600002,50.0,2.0,6.3440257e-07
1417,159.56454086325,50.0,1.3333334,6.3440257e-07
1418,161.193424225,50.0,0.6666667,6.3440257e-07
1419,161.27009964,50.0,-5.5511150000000004e-17,6.3440257e-07
1420,149.6980228425,50.0,-0.6666667,6.3440257e-07
1421,138.132663727,50.0,-1.3333334,6.3440257e-07
1422,159.7819900515,50.0,-2.0,6.3440257e-07
1423,158.9177894595,49.295776,2.0,6.2546735e-07
1424,159.54755401625,49.295776,1.3333334,6.2546735e-07
1425,162.40541076649998,49.295776,0.6666667,6.2546735e-07
1426,161.844028473,49.295776,0.0,6.2546735e-07
1427,162.26293945325,49.295776,-0.6666667,6.2546735e-07
1428,164.6071243285,49.295776,-1.3333334,6.2546735e-07
1429,159.7679519655,49.295776,-2.0,6.2546735e-07
1430,158.921474457,48.59155,2.0,6.165321e-07
1431,159.53340148925,48.59155,1.3333334,6.165321e-07
1432,161.27085494975,48.59155,0.6666667,6.165321e-07
1433,162.88314437875,48.59155,0.0,6.165321e-07
1434,151.13524818425,48.59155,-0.6666667,6.165321e-07
1435,138.0541114805,48.59155,-1.3333334,6.165321e-07
1436,159.76178741450002,48.59155,-2.0,6.165321e-07
1437,158.9231987,47.887325,2.0,6.0759686e-07
1438,159.522403717,47.887325,1.3333334,6.0759686e-07
1439,160.56412124625,47.887325,0.6666667,6.0759686e-07
1440,161.0380096435,47.887325,0.0,6.0759686e-07
1441,148.82699775675,47.887325,-0.6666667,6.0759686e-07
1442,135.7460212705,47.887325,-1.3333334,6.0759686e-07
1443,156.602729797,47.887325,-2.0,6.0759686e-07
1444,158.462272644,47.183098,2.0,5.986616e-07
1445,158.22852706925,47.183098,1.3333334,5.986616e-07
1446,155.05338668825,47.183098,0.6666667,5.986616e-07
1447,157.65654754625,47.183098,0.0,5.986616e-07
1448,164.2385864255,47.183098,-0.6666667,5.986616e-07
1449,167.1356124875,47.183098,-1.3333334,5.986616e-07
1450,155.2668762205,47.183098,-2.0,5.986616e-07
1451,159.22535705575,50.0,2.0,0.100000635
1452,158.721122742,50.0,1.3333334,0.100000635
1453,153.65464019774998,50.0,0.6666667,0.100000635
1454,153.16436004625,50.0,-1.6653345e-16,0.100000635
1455,150.190574646,50.0,-0.6666667,0.100000635
1456,147.103302002,50.0,-1.3333334,0.100000635
1457,159.5447540285,50.0,-2.0,0.100000635
1458,161.28704834,49.295776,2.0,0.10000063
1459,160.63084411625,49.295776,1.3333334,0.10000063
1460,158.6366348265,49.295776,0.6666667,0.10000063
1461,155.7942962645,49.295776,0.0,0.10000063
1462,148.76615524300001,49.295776,-0.6666667,0.10000063
1463,144.984642029,49.295776,-1.3333334,0.10000063
1464,161.88785553,49.295776,-2.0,0.10000063
1465,161.2444763185,48.59155,2.0,0.10000062
1466,158.7235069275,48.59155,1.3333334,0.10000062
1467,157.20550918575,48.59155,0.6666667,0.10000062
1468,161.6836891175,48.59155,0.0,0.10000062
1469,167.0419425965,48.59155,-0.6666667,0.10000062
1470,168.2816085815,48.59155,-1.3333334,0.10000062
1471,162.2251739505,48.59155,-2.0,0.10000062
1472,160.969295502,47.887325,2.0,0.100000605
1473,157.262817383,47.887325,1.3333334,0.100000605
1474,158.3780174255,47.887325,0.6666667,0.100000605
1475,163.33056259149998,47.887325,0.0,0.100000605
1476,156.521572113,47.887325,-0.6666667,0.100000605
1477,148.3258361815,47.887325,-1.3333334,0.100000605
1478,162.53453064,47.887325,-2.0,0.100000605
1479,161.473442078,47.183098,-0.6666667,0.1000006
1480,158.29353714,47.183098,-1.3333334,0.1000006
1481,153.86981201150002,47.183098,-2.0,0.1000006
1482,157.776901245,50.0,2.0,0.20000064
1483,154.56938934325,50.0,1.3333334,0.20000064
1484,145.14987945549998,50.0,0.6666667,0.20000064
1485,162.2614517215,50.0,2.220446e-16,0.20000064
1486,161.27964019799998,50.0,-0.6666667,0.20000064
1487,158.761428833,50.0,-1.3333334,0.20000064
1488,153.33671188350002,50.0,-2.0,0.20000064
1489,151.00215148950002,49.295776,2.0,0.20000063
1490,159.91587829600002,49.295776,1.3333334,0.20000063
1491,167.27584838849998,49.295776,0.6666667,0.20000063
1492,162.0051651005,49.295776,0.0,0.20000063
1493,161.105697632,49.295776,-0.6666667,0.20000063
1494,158.78956604,49.295776,-1.3333334,0.20000063
1495,160.34913635275,49.295776,-2.0,0.20000063
1496,159.22723007225,48.59155,2.0,0.20000061
1497,153.903892517,48.59155,1.3333334,0.20000061
1498,152.6786956785,48.59155,0.6666667,0.20000061
1499,161.77744293249998,48.59155,0.0,0.20000061
1500,160.9533615115,48.59155,-0.6666667,0.20000061
1501,158.8208122255,48.59155,-1.3333334,0.20000061
1502,160.50319290175,48.59155,-2.0,0.20000061
1503,167.05444335925,47.887325,2.0,0.20000061
1504,159.9349975585,47.887325,1.3333334,0.20000061
1505,149.25514984149999,47.887325,0.6666667,0.20000061
1506,161.673995972,47.887325,0.0,0.20000061
1507,160.88291168249998,47.887325,-0.6666667,0.20000061
1508,158.836647034,47.887325,-1.3333334,0.20000061
1509,159.792678833,47.887325,-2.0,0.20000061
1510,165.70227050749997,47.183098,-0.6666667,0.2000006
1511,166.370262146,47.183098,-1.3333334,0.2000006
1512,163.339874268,47.183098,-2.0,0.2000006
