Node_ID,S_Mises,Orig.X,Orig.Y,Orig.Z
1,167.617050171,11.971831,-1.3333334,1.5189921e-07
2,164.0336151125,11.971831,-2.0,1.5189921e-07
3,142.7611961365,11.267606,-1.3333334,1.4296397e-07
4,147.54353714,11.267606,-2.0,1.4296397e-07
5,167.1719970705,10.56338,-1.3333334,1.3402871e-07
6,162.1126174925,10.56338,-2.0,1.3402871e-07
7,159.896102905,9.859155,-1.3333334,1.2509346e-07
8,161.61165618899997,9.859155,-2.0,1.2509346e-07
9,163.6317367555,9.154929,-1.3333334,1.1615821e-07
10,155.27683830275,9.154929,-2.0,1.1615821e-07
11,147.889661789,8.450705,-1.3333334,1.0722298e-07
12,159.096622467,8.450705,-2.0,1.0722298e-07
13,165.3159179685,7.746479,-1.3333334,9.828773e-08
14,163.3160552975,7.746479,-2.0,9.828773e-08
15,141.57134246799998,7.0422535,-1.3333334,8.9352476e-08
16,155.01327133175,7.0422535,-2.0,8.9352476e-08
17,160.493499756,6.338028,-1.3333334,8.041723e-08
18,148.91377639774998,6.338028,-2.0,8.041723e-08
19,157.99187088,5.633803,-1.3333334,7.1481985e-08
20,168.98766326875,5.633803,-2.0,7.1481985e-08
21,167.2873382565,4.9295774,-1.3333334,6.254673e-08
22,149.499961853,4.9295774,-2.0,6.254673e-08
23,149.120754242,4.2253523,-1.3333334,5.361149e-08
24,151.67107772825,4.2253523,-2.0,5.361149e-08
25,156.75022506725,3.5211267,-1.3333334,4.4676238e-08
26,163.420768738,3.5211267,-2.0,4.4676238e-08
27,166.48368453975,2.8169014,-1.3333334,3.5740992e-08
28,165.0256729125,2.8169014,-2.0,3.5740992e-08
29,169.9323806765,2.1126761,-1.3333334,2.6805743e-08
30,160.77806091325,2.1126761,-2.0,2.6805743e-08
31,159.45367050175,1.4084507,-1.3333334,1.7870496e-08
32,165.9398880005,1.4084507,-2.0,1.7870496e-08
33,165.94813919075,0.70422536,-1.3333334,8.935248e-09
34,165.9195137025,0.70422536,-2.0,8.935248e-09
35,164.53892517100002,0.0,-1.3333334,0.0
36,168.91960907,0.0,-2.0,0.0
37,167.1038894655,11.971831,-1.3333334,0.10000015
38,166.30300903325,11.971831,-2.0,0.10000015
39,167.37595367425,11.267606,-1.3333334,0.10000014
40,165.90469741825,11.267606,-2.0,0.10000014
41,160.039642334,10.56338,-1.3333334,0.100000136
42,155.7039489745,10.56338,-2.0,0.100000136
43,166.99176788350002,9.859155,-1.3333334,0.10000013
44,164.31903839125,9.859155,-2.0,0.10000013
45,162.83265686025,9.154929,-1.3333334,0.10000012
46,165.015434265,9.154929,-2.0,0.10000012
47,163.69910430925,8.450705,-1.3333334,0.100000106
48,157.21976852425001,8.450705,-2.0,0.100000106
49,153.0531921385,7.746479,-1.3333334,0.1000001
50,161.6308135985,7.746479,-2.0,0.1000001
51,161.808052063,7.0422535,-1.3333334,0.10000009
52,162.4876213075,7.0422535,-2.0,0.10000009
53,164.92272949225,6.338028,-1.3333334,0.10000008
54,165.10917663575,6.338028,-2.0,0.10000008
55,162.29575729375,5.633803,-1.3333334,0.100000076
56,161.228668213,5.633803,-2.0,0.100000076
57,163.998161316,4.9295774,-1.3333334,0.10000006
58,163.85165023825,4.9295774,-2.0,0.10000006
59,164.402839661,4.2253523,-1.3333334,0.10000005
60,165.577713013,4.2253523,-2.0,0.10000005
61,163.27944183350002,3.5211267,-1.3333334,0.100000046
62,158.84976196275,3.5211267,-2.0,0.100000046
63,157.19552612299998,2.8169014,-1.3333334,0.10000004
64,166.93000030550002,2.8169014,-2.0,0.10000004
65,166.525596619,2.1126761,-1.3333334,0.10000003
66,163.4496307375,2.1126761,-2.0,0.10000003
67,162.499343872,1.4084507,-1.3333334,0.10000002
68,162.239830017,1.4084507,-2.0,0.10000002
69,158.025161743,0.70422536,-1.3333334,0.10000001
70,155.7912826535,0.70422536,-2.0,0.10000001
71,164.1235198975,-1.2688052e-09,-1.3333334,0.1
72,163.27565383925,-1.2688052e-09,-2.0,0.1
73,159.6761665345,11.971831,-1.3333334,0.20000015
74,159.7659683225,11.971831,-2.0,0.20000015
75,162.07536697375,11.267606,-1.3333334,0.20000015
76,160.769794464,11.267606,-2.0,0.20000015
77,159.9962463375,10.56338,-1.3333334,0.20000014
78,163.521430969,10.56338,-2.0,0.20000014
79,162.04206848125,9.859155,-1.3333334,0.20000012
80,158.22314834600002,9.859155,-2.0,0.20000012
81,158.53148651125,9.154929,-1.3333334,0.20000012
82,161.37650680525002,9.154929,-2.0,0.20000012
83,161.72628021225,8.450705,-1.3333334,0.2000001
84,161.878929138,8.450705,-2.0,0.2000001
85,163.24549865699998,7.746479,-1.3333334,0.2000001
86,161.8897972105,7.746479,-2.0,0.2000001
87,158.45484161375,7.0422535,-1.3333334,0.20000009
88,158.09440231325,7.0422535,-2.0,0.20000009
89,161.13225936875,6.338028,-1.3333334,0.20000008
90,162.14039993275,6.338028,-2.0,0.20000008
91,161.829498291,5.633803,-1.3333334,0.20000008
92,162.9892730715,5.633803,-2.0,0.20000008
93,161.76263809225,4.9295774,-1.3333334,0.20000006
94,158.6703453065,4.9295774,-2.0,0.20000006
95,158.33356475825,4.2253523,-1.3333334,0.20000006
96,161.12975311275,4.2253523,-2.0,0.20000006
97,162.09575653075,3.5211267,-1.3333334,0.20000005
98,161.7944488525,3.5211267,-2.0,0.20000005
99,162.7582092285,2.8169014,-1.3333334,0.20000003
100,161.6517333985,2.8169014,-2.0,0.20000003
101,158.8689842225,2.1126761,-1.3333334,0.20000003
102,158.545185089,2.1126761,-2.0,0.20000003
103,161.13096618650002,1.4084507,-1.3333334,0.20000002
104,162.06857681275,1.4084507,-2.0,0.20000002
105,161.772880554,0.70422536,-1.3333334,0.20000002
106,162.5620651245,0.70422536,-2.0,0.20000002
107,161.5587272645,-2.5376103e-09,-1.3333334,0.2
108,159.04446029675,-2.5376103e-09,-2.0,0.2
109,158.72628784175,11.971831,0.0,1.5189921e-07
110,161.1356925965,11.971831,-0.6666667,1.5189921e-07
111,162.05856704725,11.267606,0.0,1.4296397e-07
112,161.76479339600002,11.267606,-0.6666667,1.4296397e-07
113,162.3919830325,10.56338,0.0,1.3402871e-07
114,161.477977753,10.56338,-0.6666667,1.3402871e-07
115,159.199409485,9.859155,0.0,1.2509346e-07
116,158.88110733025,9.859155,-0.6666667,1.2509346e-07
117,161.14436340325,9.154929,0.0,1.1615821e-07
118,162.06610870375,9.154929,-0.6666667,1.1615821e-07
119,161.770858765,8.450705,0.0,1.0722298e-07
120,162.246322632,8.450705,-0.6666667,1.0722298e-07
121,161.4085006715,7.746479,0.0,9.828773e-08
122,159.3320236205,7.746479,-0.6666667,9.828773e-08
123,159.007633209,7.0422535,0.0,8.9352476e-08
124,161.15695190425,7.0422535,-0.6666667,8.9352476e-08
125,162.09168243425,6.338028,0.0,8.041723e-08
126,161.79135894799998,6.338028,-0.6666667,8.041723e-08
127,162.124710083,5.633803,0.0,7.1481985e-08
128,161.11312103275,5.633803,-0.6666667,7.1481985e-08
129,160.27437973025002,4.9295774,0.0,6.254673e-08
130,160.17481231675,4.9295774,-0.6666667,6.254673e-08
131,160.279308319,4.2253523,0.0,5.361149e-08
132,161.24081802375,4.2253523,-0.6666667,5.361149e-08
133,161.825416565,3.5211267,0.0,4.4676238e-08
134,161.324066162,3.5211267,-0.6666667,4.4676238e-08
135,160.71511840825,2.8169014,0.0,3.5740992e-08
136,160.65215683,2.8169014,-0.6666667,3.5740992e-08
137,163.0181503295,2.1126761,0.0,2.6805743e-08
138,162.29243850675,2.1126761,-0.6666667,2.6805743e-08
139,160.297187805,1.4084507,0.0,1.7870496e-08
140,160.84765625,1.4084507,-0.6666667,1.7870496e-08
141,159.843559265,0.70422536,0.0,8.935248e-09
142,159.33241271975,0.70422536,-0.6666667,8.935248e-09
143,159.786960602,0.0,0.0,0.0
144,164.02114868175,0.0,-0.6666667,0.0
145,163.53522872925,11.971831,0.0,0.10000015
146,161.4147491455,11.971831,-0.6666667,0.10000015
147,163.04868316649998,11.267606,0.0,0.10000014
148,160.349029541,11.267606,-0.6666667,0.10000014
149,160.1477775575,10.56338,0.0,0.100000136
150,160.55707550075,10.56338,-0.6666667,0.100000136
151,164.45776748675001,9.859155,0.0,0.10000013
152,164.94063949600002,9.859155,-0.6666667,0.10000013
153,167.06385803225,9.154929,0.0,0.10000012
154,171.9943466185,9.154929,-0.6666667,0.10000012
155,161.54692077649997,8.450705,0.0,0.100000106
156,161.30149078374998,8.450705,-0.6666667,0.100000106
157,161.5523376465,7.746479,0.0,0.1000001
158,163.48354339600002,7.746479,-0.6666667,0.1000001
159,166.63159942625,7.0422535,0.0,0.10000009
160,172.522693634,7.0422535,-0.6666667,0.10000009
161,176.7006607055,6.338028,0.0,0.10000008
162,161.89969635,6.338028,-0.6666667,0.10000008
163,160.91212463375,5.633803,0.0,0.100000076
164,160.3524742125,5.633803,-0.6666667,0.100000076
165,161.62275314325,4.9295774,0.0,0.10000006
166,164.85280227675,4.9295774,-0.6666667,0.10000006
167,168.716621399,4.2253523,0.0,0.10000005
168,170.1927490235,4.2253523,-0.6666667,0.10000005
169,162.63072204600002,3.5211267,0.0,0.100000046
170,161.7995414735,3.5211267,-0.6666667,0.100000046
171,159.87104415875,2.8169014,0.0,0.10000004
172,155.5566329955,2.8169014,-0.6666667,0.10000004
173,159.97209930425,2.1126761,0.0,0.10000003
174,169.836452484,2.1126761,-0.6666667,0.10000003
175,172.068244934,1.4084507,0.0,0.10000002
176,162.885498047,1.4084507,-0.6666667,0.10000002
177,162.113620758,0.70422536,0.0,0.10000001
178,160.466278076,0.70422536,-0.6666667,0.10000001
179,156.11220932,-1.2688052e-09,0.0,0.1
180,159.25252151475001,-1.2688052e-09,-0.6666667,0.1
181,171.09497833225,11.971831,0.0,0.20000015
182,176.318519592,11.971831,-0.6666667,0.20000015
183,162.7366714475,11.267606,0.0,0.20000015
184,162.01599121075,11.267606,-0.6666667,0.20000015
185,160.48892211925,10.56338,0.0,0.20000014
186,164.6945381165,10.56338,-0.6666667,0.20000014
187,166.5330314635,9.859155,0.0,0.20000012
188,165.0667152405,9.859155,-0.6666667,0.20000012
189,166.7739105225,9.154929,0.0,0.20000012
190,160.748802185,9.154929,-0.6666667,0.20000012
191,161.16802215575,8.450705,0.0,0.2000001
192,160.87232208275,8.450705,-0.6666667,0.2000001
193,163.28341674825,7.746479,0.0,0.2000001
194,158.159740448,7.746479,-0.6666667,0.2000001
195,159.16305542,7.0422535,0.0,0.20000009
196,168.4160614015,7.0422535,-0.6666667,0.20000009
197,157.7403182985,6.338028,0.0,0.20000008
198,160.179084778,6.338028,-0.6666667,0.20000008
199,161.58740615875,5.633803,0.0,0.20000008
200,163.22143554725,5.633803,-0.6666667,0.20000008
201,158.18939209,4.9295774,0.0,0.20000006
202,160.03244400025,4.9295774,-0.6666667,0.20000006
203,169.572013855,4.2253523,0.0,0.20000006
204,160.78597259499998,4.2253523,-0.6666667,0.20000006
205,161.76837539675,3.5211267,0.0,0.20000005
206,161.0668449405,3.5211267,-0.6666667,0.20000005
207,162.72900009175,2.8169014,0.0,0.20000003
208,168.96904373175,2.8169014,-0.6666667,0.20000003
209,158.13138580325,2.1126761,0.0,0.20000003
210,144.399772644,2.1126761,-0.6666667,0.20000003
211,165.13298797599998,1.4084507,0.0,0.20000002
212,163.71049880975,1.4084507,-0.6666667,0.20000002
213,160.22680664075,0.70422536,0.0,0.20000002
214,161.67995071425,0.70422536,-0.6666667,0.20000002
215,166.6269340515,-2.5376103e-09,0.0,0.2
216,157.47867584225,-2.5376103e-09,-0.6666667,0.2
217,146.897781372,6.338028,2.0,8.041723e-08
218,165.5489120485,6.338028,1.3333334,8.041723e-08
219,164.0425453185,5.633803,2.0,7.1481985e-08
220,160.3199768065,5.633803,1.3333334,7.1481985e-08
221,165.78460693375,5.633803,0.6666667,7.1481985e-08
222,170.534740448,4.9295774,2.0,6.254673e-08
223,164.61458206175,4.9295774,1.3333334,6.254673e-08
224,161.6251220705,4.9295774,0.6666667,6.254673e-08
225,165.965171814,4.2253523,2.0,5.361149e-08
226,164.3868751525,4.2253523,1.3333334,5.361149e-08
227,160.48801040625,4.2253523,0.6666667,5.361149e-08
228,163.58335876450002,3.5211267,2.0,4.4676238e-08
229,158.05717659,3.5211267,1.3333334,4.4676238e-08
230,144.3944683075,3.5211267,0.6666667,4.4676238e-08
231,141.6738586425,2.8169014,2.0,3.5740992e-08
232,166.41102600099998,2.8169014,1.3333334,3.5740992e-08
233,164.759929657,2.8169014,0.6666667,3.5740992e-08
234,160.69414901725,2.1126761,2.0,2.6805743e-08
235,157.204334259,2.1126761,1.3333334,2.6805743e-08
236,151.379331589,2.1126761,0.6666667,2.6805743e-08
237,147.3466625215,1.4084507,2.0,1.7870496e-08
238,148.06386566150002,1.4084507,1.3333334,1.7870496e-08
239,166.053337097,1.4084507,0.6666667,1.7870496e-08
240,164.1953315735,0.70422536,2.0,8.935248e-09
241,158.02437591575,0.70422536,1.3333334,8.935248e-09
242,155.321208954,0.70422536,0.6666667,8.935248e-09
243,166.4740753175,0.0,2.0,0.0
244,170.221687317,0.0,1.3333334,0.0
245,164.4262161255,0.0,0.6666667,0.0
246,165.6919021605,6.338028,2.0,0.10000008
247,160.1128463745,6.338028,1.3333334,0.10000008
248,156.14420318625,6.338028,0.6666667,0.10000008
249,163.355407715,5.633803,2.0,0.100000076
250,172.07735824575,5.633803,1.3333334,0.100000076
251,158.965511322,5.633803,0.6666667,0.100000076
252,142.7325057985,4.9295774,2.0,0.10000006
253,163.798057556,4.9295774,1.3333334,0.10000006
254,159.307331085,4.9295774,0.6666667,0.10000006
255,158.706336975,4.2253523,2.0,0.10000005
256,166.17128753675001,4.2253523,1.3333334,0.10000005
257,154.65264892575,4.2253523,0.6666667,0.10000005
258,143.45156478875,3.5211267,2.0,0.100000046
259,147.34433746349998,3.5211267,1.3333334,0.100000046
260,164.2704544065,3.5211267,0.6666667,0.100000046
261,164.31788253775,2.8169014,2.0,0.10000004
262,161.55279922475,2.8169014,1.3333334,0.10000004
263,156.09390258775,2.8169014,0.6666667,0.10000004
264,144.1596946715,2.1126761,2.0,0.10000003
265,150.31752014149998,2.1126761,1.3333334,0.10000003
266,165.763168335,2.1126761,0.6666667,0.10000003
267,153.29566192599998,1.4084507,2.0,0.10000002
268,158.887828827,1.4084507,1.3333334,0.10000002
269,157.7962036135,1.4084507,0.6666667,0.10000002
270,151.48234939575,0.70422536,2.0,0.10000001
271,157.04597473125,0.70422536,1.3333334,0.10000001
272,161.73046493524998,0.70422536,0.6666667,0.10000001
273,161.2212677005,-1.2688052e-09,2.0,0.1
274,140.845375061,-1.2688052e-09,1.3333334,0.1
275,152.7560195925,-1.2688052e-09,0.6666667,0.1
276,158.7637062075,6.338028,2.0,0.20000008
277,157.42144393925,6.338028,1.3333334,0.20000008
278,161.7794914245,6.338028,0.6666667,0.20000008
279,160.63931655875,5.633803,2.0,0.20000008
280,159.701789856,5.633803,1.3333334,0.20000008
281,150.407798767,5.633803,0.6666667,0.20000008
282,159.753894806,4.9295774,2.0,0.20000006
283,166.3957862855,4.9295774,1.3333334,0.20000006
284,162.661567688,4.9295774,0.6666667,0.20000006
285,161.035030365,4.2253523,2.0,0.20000006
286,160.37426376325,4.2253523,1.3333334,0.20000006
287,160.3100204465,4.2253523,0.6666667,0.20000006
288,161.333404541,3.5211267,2.0,0.20000005
289,158.51794052125,3.5211267,1.3333334,0.20000005
290,161.36102294925,3.5211267,0.6666667,0.20000005
291,165.078781128,2.8169014,2.0,0.20000003
292,161.99413681024998,2.8169014,1.3333334,0.20000003
293,161.0263137815,2.8169014,0.6666667,0.20000003
294,161.2023468015,2.1126761,2.0,0.20000003
295,164.2733612065,2.1126761,1.3333334,0.20000003
296,150.14761734025,2.1126761,0.6666667,0.20000003
297,152.80374908425,1.4084507,2.0,0.20000002
298,166.560985565,1.4084507,1.3333334,0.20000002
299,162.1665611265,1.4084507,0.6666667,0.20000002
300,160.271217346,0.70422536,2.0,0.20000002
301,159.7456588745,0.70422536,1.3333334,0.20000002
302,165.392860413,0.70422536,0.6666667,0.20000002
303,148.468727112,-2.5376103e-09,2.0,0.2
304,151.012260437,-2.5376103e-09,1.3333334,0.2
305,165.43495559675,-2.5376103e-09,0.6666667,0.2
306,160.82333374,11.971831,2.0,1.5189921e-07
307,160.79721832274998,11.971831,1.3333334,1.5189921e-07
308,160.33775329600002,11.971831,0.6666667,1.5189921e-07
309,166.8248291015,11.267606,2.0,1.4296397e-07
310,156.22766113275,11.267606,1.3333334,1.4296397e-07
311,158.47592926024998,11.267606,0.6666667,1.4296397e-07
312,166.09023666375,10.56338,2.0,1.3402871e-07
313,161.53696441649998,10.56338,1.3333334,1.3402871e-07
314,161.70186233524998,10.56338,0.6666667,1.3402871e-07
315,161.18890380850002,9.859155,2.0,1.2509346e-07
316,166.087234497,9.859155,1.3333334,1.2509346e-07
317,162.70349121075,9.859155,0.6666667,1.2509346e-07
318,164.89065170275,9.154929,2.0,1.1615821e-07
319,165.94881820675,9.154929,1.3333334,1.1615821e-07
320,160.50116348275,9.154929,0.6666667,1.1615821e-07
321,159.668361664,8.450705,2.0,1.0722298e-07
322,159.77047729499998,8.450705,1.3333334,1.0722298e-07
323,164.601844788,8.450705,0.6666667,1.0722298e-07
324,161.72978591925,7.746479,2.0,9.828773e-08
325,163.78825378425,7.746479,1.3333334,9.828773e-08
326,163.84275436425,7.746479,0.6666667,9.828773e-08
327,159.5242156985,7.0422535,2.0,8.9352476e-08
328,160.2180786135,7.0422535,1.3333334,8.9352476e-08
329,160.3544540405,7.0422535,0.6666667,8.9352476e-08
330,164.58079528849998,6.338028,0.6666667,8.041723e-08
331,161.888774872,12.676056,0.6666667,0.100000165
332,163.71770095825002,12.676056,0.0,0.100000165
333,164.126262665,11.971831,2.0,0.10000015
334,160.76258468650002,11.971831,1.3333334,0.10000015
335,161.346660614,11.971831,0.6666667,0.10000015
336,161.18202972400002,11.267606,2.0,0.10000014
337,164.4013442995,11.267606,1.3333334,0.10000014
338,161.8340797425,11.267606,0.6666667,0.10000014
339,163.47766494750002,10.56338,2.0,0.100000136
340,164.64226532,10.56338,1.3333334,0.100000136
341,160.188697815,10.56338,0.6666667,0.100000136
342,159.28459930425,9.859155,2.0,0.10000013
343,159.787818909,9.859155,1.3333334,0.10000013
344,164.038719177,9.859155,0.6666667,0.10000013
345,161.41319656349998,9.154929,2.0,0.10000012
346,162.963645935,9.154929,1.3333334,0.10000012
347,164.9985580445,9.154929,0.6666667,0.10000012
348,161.39727401725,8.450705,2.0,0.100000106
349,160.15381622325,8.450705,1.3333334,0.100000106
350,160.370582581,8.450705,0.6666667,0.100000106
351,162.4683609005,7.746479,2.0,0.1000001
352,158.547451019,7.746479,1.3333334,0.1000001
353,160.19569778425,7.746479,0.6666667,0.1000001
354,164.9048194885,7.0422535,2.0,0.10000009
355,162.40990066525,7.0422535,1.3333334,0.10000009
356,160.978252411,7.0422535,0.6666667,0.10000009
357,161.1814880375,12.676056,0.6666667,0.20000017
358,159.65227508549998,12.676056,0.0,0.20000017
359,155.626296997,11.971831,2.0,0.20000015
360,157.6234054565,11.971831,1.3333334,0.20000015
361,161.589782715,11.971831,0.6666667,0.20000015
362,160.21712875375,11.267606,2.0,0.20000015
363,160.343826294,11.267606,1.3333334,0.20000015
364,159.786468506,11.267606,0.6666667,0.20000015
365,158.1374206545,10.56338,2.0,0.20000014
366,158.51466369625,10.56338,1.3333334,0.20000014
367,161.09530258175,10.56338,0.6666667,0.20000014
368,161.53144836425,9.859155,2.0,0.20000012
369,160.79468917825,9.859155,1.3333334,0.20000012
370,161.1005096435,9.859155,0.6666667,0.20000012
371,160.37583923350002,9.154929,2.0,0.20000012
372,160.2590179445,9.154929,1.3333334,0.20000012
373,161.635673523,9.154929,0.6666667,0.20000012
374,162.016139984,8.450705,2.0,0.2000001
375,161.501483917,8.450705,1.3333334,0.2000001
376,160.0288352965,8.450705,0.6666667,0.2000001
377,159.6313591005,7.746479,2.0,0.2000001
378,161.1880645755,7.746479,1.3333334,0.2000001
379,162.7846832275,7.746479,0.6666667,0.2000001
380,161.6987838745,7.0422535,2.0,0.20000009
381,160.716732025,7.0422535,1.3333334,0.20000009
382,162.53052139275002,7.0422535,0.6666667,0.20000009
383,162.01097488425,23.943663,-1.3333334,3.0379843e-07
384,160.69894790675,23.943663,-2.0,3.0379843e-07
385,161.61640930200002,23.239437,-1.3333334,2.9486318e-07
386,161.344261169,23.239437,-2.0,2.9486318e-07
387,161.425159454,22.535212,-1.3333334,2.8592794e-07
388,161.07649993875,22.535212,-2.0,2.8592794e-07
389,161.94894409175,21.830986,-1.3333334,2.769927e-07
390,159.52646636975,21.830986,-2.0,2.769927e-07
391,157.784893036,21.12676,-1.3333334,2.6805742e-07
392,159.7677993775,21.12676,-2.0,2.6805742e-07
393,160.45505523650002,20.422535,-1.3333334,2.5912217e-07
394,161.1976852415,20.422535,-2.0,2.5912217e-07
395,160.259536743,19.71831,-1.3333334,2.5018693e-07
396,158.44346618625,19.71831,-2.0,2.5018693e-07
397,157.15576171875,19.014084,-1.3333334,2.4125168e-07
398,161.354587555,19.014084,-2.0,2.4125168e-07
399,166.7058258055,18.309858,-1.3333334,2.3231642e-07
400,161.7124938965,18.309858,-2.0,2.3231642e-07
401,161.3584747315,17.605635,-1.3333334,2.233812e-07
402,159.9652519225,17.605635,-2.0,2.233812e-07
403,158.65541839575,16.90141,-1.3333334,2.1444595e-07
404,156.5966033935,16.90141,-2.0,2.1444595e-07
405,161.6122779845,16.197184,-1.3333334,2.055107e-07
406,168.416137695,16.197184,-2.0,2.055107e-07
407,162.013519287,15.492958,-1.3333334,1.9657546e-07
408,161.29707336425,15.492958,-2.0,1.9657546e-07
409,159.54804992675,14.788733,-1.3333334,1.876402e-07
410,160.693069458,14.788733,-2.0,1.876402e-07
411,158.33006286625,14.084507,-1.3333334,1.7870495e-07
412,160.28171920775,14.084507,-2.0,1.7870495e-07
413,166.773979187,13.380281,-1.3333334,1.697697e-07
414,161.934700012,13.380281,-2.0,1.697697e-07
415,161.260383606,12.676056,-1.3333334,1.6083446e-07
416,159.6230545045,12.676056,-2.0,1.6083446e-07
417,157.00894927975,24.647888,-1.3333334,0.100000314
418,160.17557907100002,24.647888,-2.0,0.100000314
419,170.6559295655,23.943663,-1.3333334,0.10000031
420,176.3185577395,23.943663,-2.0,0.10000031
421,161.8726730345,23.239437,-1.3333334,0.1000003
422,161.232017517,23.239437,-2.0,0.1000003
423,159.68323135375,22.535212,-1.3333334,0.100000285
424,155.991519928,22.535212,-2.0,0.100000285
425,153.66166305525002,21.830986,-1.3333334,0.10000028
426,163.0918273925,21.830986,-2.0,0.10000028
427,172.0682678225,21.12676,-1.3333334,0.10000027
428,161.82540893549998,21.12676,-2.0,0.10000027
429,161.21039581275,20.422535,-1.3333334,0.10000026
430,159.72969436625,20.422535,-2.0,0.10000026
431,162.26835632325,19.71831,-1.3333334,0.100000255
432,158.74839019774998,19.71831,-2.0,0.100000255
433,161.00841522225,19.014084,-1.3333334,0.10000024
434,170.192756653,19.014084,-2.0,0.10000024
435,162.380218506,18.309858,-1.3333334,0.10000023
436,161.07795333849998,18.309858,-2.0,0.10000023
437,160.21595382675,17.605635,-1.3333334,0.100000225
438,162.848297119,17.605635,-2.0,0.100000225
439,166.3225212095,16.90141,-1.3333334,0.10000022
440,172.1526641845,16.90141,-2.0,0.10000022
441,176.7006607055,16.197184,-1.3333334,0.10000021
442,161.952720642,16.197184,-2.0,0.10000021
443,158.4581947325,15.492958,-1.3333334,0.100000195
444,158.983970642,15.492958,-2.0,0.100000195
445,163.45179748525,14.788733,-1.3333334,0.10000019
446,164.885379791,14.788733,-2.0,0.10000019
447,168.93289566025,14.084507,-1.3333334,0.10000018
448,171.994354248,14.084507,-2.0,0.10000018
449,163.56448364250002,13.380281,-1.3333334,0.10000017
450,161.18628311150002,13.380281,-2.0,0.10000017
451,161.118572235,12.676056,-1.3333334,0.100000165
452,166.56780624375,12.676056,-2.0,0.100000165
453,167.49412918075,24.647888,-1.3333334,0.20000032
454,168.21521759025,24.647888,-2.0,0.20000032
455,171.148727417,23.943663,-1.3333334,0.2000003
456,165.965171814,23.943663,-2.0,0.2000003
457,165.30892562875,23.239437,-1.3333334,0.2000003
458,162.67122268674999,23.239437,-2.0,0.2000003
459,164.58040618875,22.535212,-1.3333334,0.20000029
460,160.15167617775,22.535212,-2.0,0.20000029
461,164.72441864,21.830986,-1.3333334,0.20000029
462,177.616531372,21.830986,-2.0,0.20000029
463,160.728149414,21.12676,-1.3333334,0.20000027
464,162.01532745375,21.12676,-2.0,0.20000027
465,161.34587097175,20.422535,-1.3333334,0.20000026
466,160.19611358625,20.422535,-2.0,0.20000026
467,155.7479629515,19.71831,-1.3333334,0.20000026
468,161.159725189,19.71831,-2.0,0.20000026
469,171.8265151975,19.014084,-1.3333334,0.20000024
470,155.95974731450002,19.014084,-2.0,0.20000024
471,159.8730812075,18.309858,-1.3333334,0.20000024
472,162.20077514675,18.309858,-2.0,0.20000024
473,159.87284469625,17.605635,-1.3333334,0.20000023
474,165.49677276625,17.605635,-2.0,0.20000023
475,170.80474090575,16.90141,-1.3333334,0.20000021
476,169.7464904785,16.90141,-2.0,0.20000021
477,156.43349456800001,16.197184,-1.3333334,0.20000021
478,159.95816803,16.197184,-2.0,0.20000021
479,162.01490783725,15.492958,-1.3333334,0.2000002
480,162.870632172,15.492958,-2.0,0.2000002
481,166.62693405175,14.788733,-1.3333334,0.2000002
482,172.398376465,14.788733,-2.0,0.2000002
483,176.737174988,14.084507,-1.3333334,0.20000018
484,156.856491089,14.084507,-2.0,0.20000018
485,160.03206634525,13.380281,-1.3333334,0.20000017
486,161.86717224125,13.380281,-2.0,0.20000017
487,166.996070862,12.676056,-1.3333334,0.20000017
488,167.21755599975,12.676056,-2.0,0.20000017
489,165.8199386595,23.943663,-0.6666667,3.0379843e-07
490,170.6702041625,23.239437,0.0,2.9486318e-07
491,157.2368392945,23.239437,-0.6666667,2.9486318e-07
492,160.0963249205,22.535212,0.0,2.8592794e-07
493,161.7453041075,22.535212,-0.6666667,2.8592794e-07
494,168.08422088625,21.830986,0.0,2.769927e-07
495,158.05724143975,21.830986,-0.6666667,2.769927e-07
496,154.35851478575,21.12676,0.0,2.6805742e-07
497,168.23619079600002,21.12676,-0.6666667,2.6805742e-07
498,157.412826538,20.422535,0.0,2.5912217e-07
499,160.1225204465,20.422535,-0.6666667,2.5912217e-07
500,161.686767578,19.71831,0.0,2.5018693e-07
501,167.5478515625,19.71831,-0.6666667,2.5018693e-07
502,147.1152153015,19.014084,0.0,2.4125168e-07
503,146.6295967105,19.014084,-0.6666667,2.4125168e-07
504,173.583145142,18.309858,0.0,2.3231642e-07
505,164.2945861815,18.309858,-0.6666667,2.3231642e-07
506,161.402229309,17.605635,0.0,2.233812e-07
507,152.94419288625,17.605635,-0.6666667,2.233812e-07
508,158.093240738,16.90141,0.0,2.1444595e-07
509,154.31152915975,16.90141,-0.6666667,2.1444595e-07
510,152.87799263,16.197184,0.0,2.055107e-07
511,165.9408950805,16.197184,-0.6666667,2.055107e-07
512,155.458000183,15.492958,0.0,1.9657546e-07
513,159.827047348,15.492958,-0.6666667,1.9657546e-07
514,159.624413490375,14.788733,-0.6666667,1.876402e-07
515,157.729416847375,14.084507,0.0,1.7870495e-07
516,156.92166805275,14.084507,-0.6666667,1.7870495e-07
517,159.051024436875,13.380281,0.0,1.697697e-07
518,164.66481399525,13.380281,-0.6666667,1.697697e-07
519,137.686187744,12.676056,0.0,1.6083446e-07
520,152.30187988275,12.676056,-0.6666667,1.6083446e-07
521,163.12344741825,24.647888,0.0,0.100000314
522,154.66959762575,24.647888,-0.6666667,0.100000314
523,158.80029869075,23.943663,0.0,0.10000031
524,165.930620193375,23.943663,-0.6666667,0.10000031
525,164.27051544175,23.239437,0.0,0.1000003
526,148.31399154675,23.239437,-0.6666667,0.1000003
527,152.905700683625,22.535212,0.0,0.100000285
528,159.17719078049998,22.535212,-0.6666667,0.100000285
529,155.04600715625,21.830986,0.0,0.10000028
530,157.08882713325,21.830986,-0.6666667,0.10000028
531,161.50218391425,21.12676,0.0,0.10000027
532,158.061756134,21.12676,-0.6666667,0.10000027
533,165.76102066075,20.422535,0.0,0.10000026
534,163.07709121725,20.422535,-0.6666667,0.10000026
535,160.292560577375,19.71831,0.0,0.100000255
536,159.88093757625,19.71831,-0.6666667,0.100000255
537,162.030927658125,19.014084,0.0,0.10000024
538,161.122819900625,19.014084,-0.6666667,0.10000024
539,157.7537002565,18.309858,0.0,0.10000023
540,165.87025451675,18.309858,-0.6666667,0.10000023
541,163.366018295375,17.605635,0.0,0.100000225
542,161.027898788375,17.605635,-0.6666667,0.100000225
543,163.629165649375,16.90141,0.0,0.10000022
544,165.769861221375,16.90141,-0.6666667,0.10000022
545,162.74289703375,16.197184,0.0,0.10000021
546,160.01038742075002,16.197184,-0.6666667,0.10000021
547,165.69702529900002,15.492958,0.0,0.100000195
548,161.70550918575,15.492958,-0.6666667,0.100000195
549,159.2522792815,14.788733,0.0,0.10000019
550,162.89294624325,14.788733,-0.6666667,0.10000019
551,163.71607398999998,14.084507,0.0,0.10000018
552,158.96451377875002,14.084507,-0.6666667,0.10000018
553,155.4922065735,13.380281,0.0,0.10000017
554,156.935180664,13.380281,-0.6666667,0.10000017
555,157.761049270625,12.676056,-0.6666667,0.100000165
556,159.24913024912502,24.647888,0.0,0.20000032
557,162.96268081675,24.647888,-0.6666667,0.20000032
558,163.429578781125,23.943663,0.0,0.2000003
559,158.46185112,23.943663,-0.6666667,0.2000003
560,156.07856369025,23.239437,0.0,0.2000003
561,159.28715133675001,23.239437,-0.6666667,0.2000003
562,159.837463379,22.535212,0.0,0.20000029
563,162.2566051485,22.535212,-0.6666667,0.20000029
564,164.6905384065,21.830986,0.0,0.20000029
565,163.196504592875,21.830986,-0.6666667,0.20000029
566,159.414510726875,21.12676,0.0,0.20000027
567,157.69165420525,21.12676,-0.6666667,0.20000027
568,165.669342041,20.422535,0.0,0.20000026
569,165.391292572125,20.422535,-0.6666667,0.20000026
570,161.739084243875,19.71831,0.0,0.20000026
571,160.865795135375,19.71831,-0.6666667,0.20000026
572,161.79758834825,19.014084,0.0,0.20000024
573,160.175878524625,19.014084,-0.6666667,0.20000024
574,160.123245239,18.309858,0.0,0.20000024
575,163.13585662825,18.309858,-0.6666667,0.20000024
576,162.213245391875,17.605635,0.0,0.20000023
577,159.29372978225,17.605635,-0.6666667,0.20000023
578,159.217185974,16.90141,0.0,0.20000021
579,160.4897346495,16.90141,-0.6666667,0.20000021
580,160.613008499,16.197184,0.0,0.20000021
581,161.384094238,16.197184,-0.6666667,0.20000021
582,162.80812072724999,15.492958,0.0,0.2000002
583,161.12829017625,15.492958,-0.6666667,0.2000002
584,159.788341522375,14.788733,0.0,0.2000002
585,160.019496917875,14.788733,-0.6666667,0.2000002
586,160.657157897875,14.084507,0.0,0.20000018
587,161.3190135955,14.084507,-0.6666667,0.20000018
588,161.23448181150002,13.380281,0.0,0.20000017
589,162.5737800595,13.380281,-0.6666667,0.20000017
590,161.062337875125,12.676056,-0.6666667,0.20000017
591,159.875026702875,18.309858,2.0,2.3231642e-07
592,159.743297577,18.309858,1.3333334,2.3231642e-07
593,160.559289932125,18.309858,0.6666667,2.3231642e-07
594,161.52147293075,17.605635,2.0,2.233812e-07
595,161.21180343625,17.605635,1.3333334,2.233812e-07
596,162.37315368650002,17.605635,0.6666667,2.233812e-07
597,161.018289566,16.90141,2.0,2.1444595e-07
598,159.9638290405,16.90141,1.3333334,2.1444595e-07
599,159.81105422975,16.90141,0.6666667,2.1444595e-07
600,160.57691192625,16.197184,2.0,2.055107e-07
601,161.49578666675,16.197184,1.3333334,2.055107e-07
602,161.195625305,16.197184,0.6666667,2.055107e-07
603,162.2031822205,15.492958,2.0,1.9657546e-07
604,160.985898971625,15.492958,1.3333334,1.9657546e-07
605,160.05136871337498,15.492958,0.6666667,1.9657546e-07
606,159.871311187625,14.788733,2.0,1.876402e-07
607,160.591463089,14.788733,1.3333334,1.876402e-07
608,161.47994613650002,14.788733,0.6666667,1.876402e-07
609,161.18546676625,14.788733,0.0,1.876402e-07
610,162.05961227425001,14.084507,2.0,1.7870495e-07
611,160.96149063125,14.084507,1.3333334,1.7870495e-07
612,160.131425857625,14.084507,0.6666667,1.7870495e-07
613,159.919569015375,13.380281,2.0,1.697697e-07
614,160.603099823,13.380281,1.3333334,1.697697e-07
615,161.47415351875,13.380281,0.6666667,1.697697e-07
616,161.18176269525,12.676056,2.0,1.6083446e-07
617,161.93442535425,12.676056,1.3333334,1.6083446e-07
618,160.940528869875,12.676056,0.6666667,1.6083446e-07
619,160.20182418837499,18.309858,2.0,0.10000023
620,159.954240798875,18.309858,1.3333334,0.10000023
621,160.612037658625,18.309858,0.6666667,0.10000023
622,161.478694915875,17.605635,2.0,0.100000225
623,161.18478012100002,17.605635,1.3333334,0.100000225
624,161.82686996475002,17.605635,0.6666667,0.100000225
625,160.92219162,16.90141,2.0,0.10000022
626,160.2587070465,16.90141,1.3333334,0.10000022
627,159.971525192125,16.90141,0.6666667,0.10000022
628,160.618019104,16.197184,2.0,0.10000021
629,161.493724823125,16.197184,1.3333334,0.10000021
630,161.19456100475,16.197184,0.6666667,0.10000021
631,161.736629486,15.492958,2.0,0.100000195
632,160.63602256775,15.492958,1.3333334,0.100000195
633,160.479904174875,15.492958,0.6666667,0.100000195
634,160.717041015625,14.788733,2.0,0.10000019
635,160.628328323375,14.788733,1.3333334,0.10000019
636,161.306802749625,14.788733,0.6666667,0.10000019
637,161.36663818350002,14.084507,2.0,0.10000018
638,161.9470672605,14.084507,1.3333334,0.10000018
639,161.18687820425,14.084507,0.6666667,0.10000018
640,160.598953247125,13.380281,2.0,0.10000017
641,159.913259506125,13.380281,1.3333334,0.10000017
642,160.645793914625,13.380281,0.6666667,0.10000017
643,163.1477947235,12.676056,2.0,0.100000165
644,164.05930328375,12.676056,1.3333334,0.100000165
645,160.2294769285,18.309858,2.0,0.20000024
646,160.722070693875,18.309858,1.3333334,0.20000024
647,160.70010375975,18.309858,0.6666667,0.20000024
648,160.362543106,17.605635,2.0,0.20000023
649,159.05443191525,17.605635,1.3333334,0.20000023
650,153.841024398875,17.605635,0.6666667,0.20000023
651,150.112728119,16.90141,2.0,0.20000021
652,159.66585159299999,16.90141,1.3333334,0.20000021
653,160.54694747925,16.90141,0.6666667,0.20000021
654,160.937360763625,16.197184,2.0,0.20000021
655,163.408639907875,16.197184,1.3333334,0.20000021
656,162.02062034600002,16.197184,0.6666667,0.20000021
657,156.635707855125,15.492958,2.0,0.2000002
658,155.60077667225,15.492958,1.3333334,0.2000002
659,161.05221557624998,15.492958,0.6666667,0.2000002
660,160.717672348,14.788733,2.0,0.2000002
661,160.89762115475,14.788733,1.3333334,0.2000002
662,160.46451950075,14.788733,0.6666667,0.2000002
663,163.26282310475,14.084507,2.0,0.20000018
664,171.410867690875,14.084507,1.3333334,0.20000018
665,175.813014984,14.084507,0.6666667,0.20000018
666,161.448223114,13.380281,2.0,0.20000017
667,160.349941253625,13.380281,1.3333334,0.20000017
668,160.566373825,13.380281,0.6666667,0.20000017
669,159.432718277,12.676056,2.0,0.20000017
670,161.312089920125,12.676056,1.3333334,0.20000017
671,156.83747673036248,23.943663,2.0,3.0379843e-07
672,148.035121917725,23.943663,1.3333334,3.0379843e-07
673,162.214138031,23.943663,0.6666667,3.0379843e-07
674,161.348356247,23.943663,0.0,3.0379843e-07
675,160.1323394775,23.239437,2.0,2.9486318e-07
676,158.675382614125,23.239437,1.3333334,2.9486318e-07
677,161.84233284,23.239437,0.6666667,2.9486318e-07
678,158.08905792223752,22.535212,2.0,2.8592794e-07
679,150.062110900725,22.535212,1.3333334,2.8592794e-07
680,162.498134613,22.535212,0.6666667,2.8592794e-07
681,161.728494644125,21.830986,2.0,2.769927e-07
682,159.961877822875,21.830986,1.3333334,2.769927e-07
683,158.46748733525,21.830986,0.6666667,2.769927e-07
684,158.49886131275,21.12676,2.0,2.6805742e-07
685,166.567865371375,21.12676,1.3333334,2.6805742e-07
686,174.10808181725,21.12676,0.6666667,2.6805742e-07
687,162.375087738,20.422535,2.0,2.5912217e-07
688,161.656524658125,20.422535,1.3333334,2.5912217e-07
689,160.01847648625,20.422535,0.6666667,2.5912217e-07
690,163.776935577375,19.71831,2.0,2.5018693e-07
691,162.372100829875,19.71831,1.3333334,2.5018693e-07
692,150.818036079275,19.71831,0.6666667,2.5018693e-07
693,145.3467502593,19.014084,2.0,2.4125168e-07
694,161.50680542,19.014084,1.3333334,2.4125168e-07
695,161.378549575875,19.014084,0.6666667,2.4125168e-07
696,160.32950401312502,24.647888,1.3333334,0.100000314
697,162.6695308685,24.647888,0.6666667,0.100000314
698,162.6885261535,23.943663,2.0,0.10000031
699,153.24572849277502,23.943663,1.3333334,0.10000031
700,147.04475212105,23.943663,0.6666667,0.10000031
701,160.63826751725,23.239437,2.0,0.1000003
702,161.37296676649999,23.239437,1.3333334,0.1000003
703,160.842729568625,23.239437,0.6666667,0.1000003
704,160.78263473525,22.535212,2.0,0.100000285
705,160.925466537625,22.535212,1.3333334,0.100000285
706,163.24727249149998,22.535212,0.6666667,0.100000285
707,166.63108825675,21.830986,2.0,0.10000028
708,162.42853164675,21.830986,1.3333334,0.10000028
709,162.217010498125,21.830986,0.6666667,0.10000028
710,160.120996475375,21.12676,2.0,0.10000027
711,156.08652400975,21.12676,1.3333334,0.10000027
712,162.13705348975,21.12676,0.6666667,0.10000027
713,152.66976928715,20.422535,2.0,0.10000026
714,135.00197601305,20.422535,1.3333334,0.10000026
715,164.45969390875,20.422535,0.6666667,0.10000026
716,162.955631256125,19.71831,2.0,0.100000255
717,159.127708435125,19.71831,1.3333334,0.100000255
718,156.286229133625,19.71831,0.6666667,0.100000255
719,157.339482307375,19.014084,2.0,0.10000024
720,148.090812683025,19.014084,1.3333334,0.10000024
721,137.2712707518,19.014084,0.6666667,0.10000024
722,164.82575988775,24.647888,1.3333334,0.20000032
723,163.226726531875,24.647888,0.6666667,0.20000032
724,158.965452194125,23.943663,2.0,0.2000003
725,163.66964912425001,23.943663,1.3333334,0.2000003
726,164.037403106625,23.943663,0.6666667,0.2000003
727,156.2731781005,23.239437,2.0,0.2000003
728,155.507637024,23.239437,1.3333334,0.2000003
729,165.20083999625,23.239437,0.6666667,0.2000003
730,163.518472671375,22.535212,2.0,0.20000029
731,158.735816955375,22.535212,1.3333334,0.20000029
732,163.83592796312502,22.535212,0.6666667,0.20000029
733,165.058672904875,21.830986,2.0,0.20000029
734,147.960005760125,21.830986,1.3333334,0.20000029
735,137.8389930725,21.830986,0.6666667,0.20000029
736,165.609085083,21.12676,2.0,0.20000027
737,163.846895217875,21.12676,1.3333334,0.20000027
738,160.55784606925,21.12676,0.6666667,0.20000027
739,162.837053298875,20.422535,2.0,0.20000026
740,162.611197471625,20.422535,1.3333334,0.20000026
741,153.118306159875,20.422535,0.6666667,0.20000026
742,147.6573371885,19.71831,2.0,0.20000026
743,165.1764411925,19.71831,1.3333334,0.20000026
744,163.1260204315,19.71831,0.6666667,0.20000026
745,160.849905014125,19.014084,2.0,0.20000024
746,156.339709282,19.014084,1.3333334,0.20000024
747,163.36439991,19.014084,0.6666667,0.20000024
748,168.550973892125,35.915493,-1.3333334,4.5569763e-07
749,162.4283561705,35.915493,-2.0,4.5569763e-07
750,164.73199462875,35.21127,-1.3333334,4.467624e-07
751,161.905876159625,35.21127,-2.0,4.467624e-07
752,160.508752823,34.507042,-1.3333334,4.3782714e-07
753,160.3911714555,34.507042,-2.0,4.3782714e-07
754,167.5867967605,33.80282,-1.3333334,4.2889192e-07
755,164.669786453125,33.80282,-2.0,4.2889192e-07
756,153.01057434075,33.09859,-1.3333334,4.1995665e-07
757,162.53902816775002,33.09859,-2.0,4.1995665e-07
758,161.329420089625,32.394367,-1.3333334,4.110214e-07
759,162.093439102125,32.394367,-2.0,4.110214e-07
760,166.689641952625,31.690142,-1.3333334,4.0208616e-07
761,163.783922195375,31.690142,-2.0,4.0208616e-07
762,157.525352477875,30.985916,-1.3333334,3.931509e-07
763,156.7950782775,30.985916,-2.0,3.931509e-07
764,162.95085906975,30.28169,-1.3333334,3.8421567e-07
765,163.391374588,30.28169,-2.0,3.8421567e-07
766,163.601680755625,29.577465,-1.3333334,3.7528042e-07
767,159.833120346,29.577465,-2.0,3.7528042e-07
768,153.710542678625,28.87324,-1.3333334,3.6634515e-07
769,157.467016219875,28.87324,-2.0,3.6634515e-07
770,163.80771636949999,28.169014,-1.3333334,3.574099e-07
771,160.25827407825,28.169014,-2.0,3.574099e-07
772,161.67841911325002,27.464788,-1.3333334,3.4847466e-07
773,161.66716766375,27.464788,-2.0,3.4847466e-07
774,158.117591857875,26.760563,-1.3333334,3.395394e-07
775,158.37192535375,26.760563,-2.0,3.395394e-07
776,160.810068130375,26.056337,-1.3333334,3.3060417e-07
777,160.87569808975,26.056337,-2.0,3.3060417e-07
778,155.431301117,25.352112,-1.3333334,3.2166892e-07
779,159.34462738050001,25.352112,-2.0,3.2166892e-07
780,160.86340713512502,24.647888,-1.3333334,3.1273368e-07
781,160.0501708985,24.647888,-2.0,3.1273368e-07
782,161.2568035125,36.619717,-1.3333334,0.10000046
783,160.6488018035,36.619717,-2.0,0.10000046
784,160.41547775275,35.915493,-1.3333334,0.100000456
785,152.057975769,35.915493,-2.0,0.100000456
786,159.885061264125,35.21127,-1.3333334,0.10000045
787,164.92671012887502,35.21127,-2.0,0.10000045
788,161.594545364375,34.507042,-1.3333334,0.10000044
789,160.50891113275,34.507042,-2.0,0.10000044
790,160.515012740875,33.80282,-1.3333334,0.100000426
791,161.0600204465,33.80282,-2.0,0.100000426
792,154.97005081175,33.09859,-1.3333334,0.10000042
793,158.831882476875,33.09859,-2.0,0.10000042
794,163.7468624115,32.394367,-1.3333334,0.10000041
795,163.405916213875,32.394367,-2.0,0.10000041
796,161.185615539375,31.690142,-1.3333334,0.100000404
797,160.616115569875,31.690142,-2.0,0.100000404
798,160.87282180775,30.985916,-1.3333334,0.1000004
799,162.327194214,30.985916,-2.0,0.1000004
800,158.144020080625,30.28169,-1.3333334,0.10000039
801,160.55570983875,30.28169,-2.0,0.10000039
802,164.883813857875,29.577465,-1.3333334,0.100000374
803,161.44919395425,29.577465,-2.0,0.100000374
804,160.3596630095,28.87324,-1.3333334,0.10000037
805,160.437992096,28.87324,-2.0,0.10000037
806,163.33819580099998,28.169014,-1.3333334,0.10000036
807,157.566387176625,28.169014,-2.0,0.10000036
808,160.317544937125,27.464788,-0.6666667,0.10000035
809,164.336441039875,27.464788,-1.3333334,0.10000035
810,160.278993606375,27.464788,-2.0,0.10000035
811,160.892711639375,26.760563,-0.6666667,0.100000344
812,161.05980682375,26.760563,-1.3333334,0.100000344
813,164.954914093,26.760563,-2.0,0.100000344
814,154.753659248375,26.056337,-1.3333334,0.10000033
815,157.42142772675,26.056337,-2.0,0.10000033
816,166.220756530625,25.352112,-1.3333334,0.10000032
817,161.972789764375,25.352112,-2.0,0.10000032
818,161.331781387375,36.619717,-1.3333334,0.20000046
819,160.8690452575,36.619717,-2.0,0.20000046
820,164.6478004455,35.915493,-1.3333334,0.20000046
821,154.695710182125,35.915493,-2.0,0.20000046
822,157.173176765375,35.21127,-1.3333334,0.20000045
823,166.18069267262499,35.21127,-2.0,0.20000045
824,161.738080978375,34.507042,-1.3333334,0.20000044
825,160.58427238475,34.507042,-2.0,0.20000044
826,160.451034546,33.80282,-1.3333334,0.20000044
827,163.38976287875,33.80282,-2.0,0.20000044
828,157.6281204225,33.09859,-1.3333334,0.20000042
829,159.745632171625,33.09859,-2.0,0.20000042
830,163.881046295125,32.394367,-1.3333334,0.20000042
831,160.674381256125,32.394367,-2.0,0.20000042
832,161.13608741775,31.690142,-1.3333334,0.2000004
833,161.06071853650002,31.690142,-2.0,0.2000004
834,163.446071625,30.985916,-1.3333334,0.20000039
835,158.0935001375,30.985916,-2.0,0.20000039
836,159.99889373775,30.28169,-1.3333334,0.20000039
837,164.25223922725,30.28169,-2.0,0.20000039
838,161.07700729375,29.577465,-1.3333334,0.20000038
839,160.88731384275002,29.577465,-2.0,0.20000038
840,160.86823272700002,28.87324,-1.3333334,0.20000038
841,163.3124046325,28.87324,-2.0,0.20000038
842,158.537576675375,28.169014,-1.3333334,0.20000036
843,160.280813217125,28.169014,-2.0,0.20000036
844,163.8603515625,27.464788,-0.6666667,0.20000035
845,160.491006851125,27.464788,-1.3333334,0.20000035
846,160.261997222875,27.464788,-2.0,0.20000035
847,160.4638061525,26.760563,-0.6666667,0.20000035
848,162.93202590925,26.760563,-1.3333334,0.20000035
849,158.40408134449999,26.760563,-2.0,0.20000035
850,159.850027084375,26.056337,-1.3333334,0.20000033
851,163.97052383425,26.056337,-2.0,0.20000033
852,161.703405380125,25.352112,-1.3333334,0.20000033
853,161.179014206,25.352112,-2.0,0.20000033
854,161.06834793125,36.619717,0.0,4.6463285e-07
855,161.18373489375,36.619717,-0.6666667,4.6463285e-07
856,158.717218399,35.915493,0.0,4.5569763e-07
857,160.093467712375,35.915493,-0.6666667,4.5569763e-07
858,163.528312683125,35.21127,0.0,4.467624e-07
859,161.54072189325,35.21127,-0.6666667,4.467624e-07
860,160.414319992125,34.507042,0.0,4.3782714e-07
861,160.8675880435,34.507042,-0.6666667,4.3782714e-07
862,160.83438491825,33.80282,0.0,4.2889192e-07
863,159.639005661,33.80282,-0.6666667,4.2889192e-07
864,160.34050178525,33.09859,0.0,4.1995665e-07
865,161.591955185,33.09859,-0.6666667,4.1995665e-07
866,160.50063896187498,32.394367,0.0,4.110214e-07
867,160.261222839375,32.394367,-0.6666667,4.110214e-07
868,160.46770095825,31.690142,0.0,4.0208616e-07
869,158.89239883425,31.690142,-0.6666667,4.0208616e-07
870,159.08148002625,30.985916,0.0,3.931509e-07
871,161.174779892,30.985916,-0.6666667,3.931509e-07
872,162.25212097175,30.28169,0.0,3.8421567e-07
873,161.202255249,30.28169,-0.6666667,3.8421567e-07
874,161.028371810875,29.577465,0.0,3.7528042e-07
875,161.0774765015,29.577465,-0.6666667,3.7528042e-07
876,159.42041397100002,28.87324,0.0,3.6634515e-07
877,160.118242263875,28.87324,-0.6666667,3.6634515e-07
878,161.1711063385,28.169014,0.0,3.574099e-07
879,161.284551620375,28.169014,-0.6666667,3.574099e-07
880,160.416078567375,27.464788,0.0,3.4847466e-07
881,160.32963371275,27.464788,-0.6666667,3.4847466e-07
882,160.87007141125002,26.760563,0.0,3.395394e-07
883,162.8828430175,26.760563,-0.6666667,3.395394e-07
884,161.78009986875,26.056337,0.0,3.3060417e-07
885,160.501504898,26.056337,-0.6666667,3.3060417e-07
886,161.74050140375,25.352112,0.0,3.2166892e-07
887,162.302373886125,25.352112,-0.6666667,3.2166892e-07
888,152.907215118425,24.647888,0.0,3.1273368e-07
889,144.3650321961,24.647888,-0.6666667,3.1273368e-07
890,160.8071594235,36.619717,0.0,0.10000046
891,160.8781719205,36.619717,-0.6666667,0.10000046
892,161.0339012145,35.915493,0.0,0.100000456
893,162.310750961375,35.915493,-0.6666667,0.100000456
894,162.01070785525,35.21127,0.0,0.10000045
895,147.7611598968,35.21127,-0.6666667,0.10000045
896,135.00378799435,34.507042,0.0,0.10000044
897,159.93239212025,34.507042,-0.6666667,0.10000044
898,160.710510253875,33.80282,0.0,0.100000426
899,161.1344509125,33.80282,-0.6666667,0.100000426
900,160.96925354,33.09859,0.0,0.10000042
901,160.926492691,33.09859,-0.6666667,0.10000042
902,159.1049137115,32.394367,0.0,0.10000041
903,157.5150756835,32.394367,-0.6666667,0.10000041
904,161.32874679575,31.690142,0.0,0.100000404
905,160.941516876375,31.690142,-0.6666667,0.100000404
906,160.796440124625,30.985916,0.0,0.1000004
907,161.1894397735,30.985916,-0.6666667,0.1000004
908,160.843038558875,30.28169,0.0,0.10000039
909,153.6956577300375,30.28169,-0.6666667,0.10000039
910,147.045524597075,29.577465,0.0,0.100000374
911,161.65441894525,29.577465,-0.6666667,0.100000374
912,160.892999649125,28.87324,0.0,0.10000037
913,160.416030883875,28.87324,-0.6666667,0.10000037
914,161.93726539612499,28.169014,0.0,0.10000036
915,161.1289196015,28.169014,-0.6666667,0.10000036
916,152.2156372070375,27.464788,0.0,0.10000035
917,145.34748458857499,26.760563,0.0,0.100000344
918,161.5968551635,26.056337,0.0,0.10000033
919,160.884733200125,26.056337,-0.6666667,0.10000033
920,160.435482025125,25.352112,0.0,0.10000032
921,161.1256160735,25.352112,-0.6666667,0.10000032
922,162.55810546875,36.619717,0.0,0.20000046
923,168.835731506375,36.619717,-0.6666667,0.20000046
924,174.10813140875,35.915493,0.0,0.20000046
925,161.55189895625,35.915493,-0.6666667,0.20000046
926,160.879045486375,35.21127,0.0,0.20000045
927,160.450513839625,35.21127,-0.6666667,0.20000045
928,159.879020690875,34.507042,0.0,0.20000044
929,160.14663124075,34.507042,-0.6666667,0.20000044
930,155.64610958095,33.80282,0.0,0.20000044
931,150.0621623994,33.80282,-0.6666667,0.20000044
932,161.51753234875,33.09859,-0.6666667,0.20000042
933,160.874801635625,32.394367,0.0,0.20000042
934,160.46142196637499,32.394367,-0.6666667,0.20000042
935,162.379844665625,31.690142,0.0,0.2000004
936,161.34049606337499,31.690142,-0.6666667,0.2000004
937,153.32361888895,30.985916,0.0,0.20000039
938,148.03516197215,30.985916,-0.6666667,0.20000039
939,159.58557128925,30.28169,0.0,0.20000039
940,160.405591964625,30.28169,-0.6666667,0.20000039
941,159.7214565275,29.577465,0.0,0.20000038
942,158.453636169375,29.577465,-0.6666667,0.20000038
943,162.4029922485,28.87324,0.0,0.20000038
944,170.964517593375,28.87324,-0.6666667,0.20000038
945,175.81302261349998,28.169014,0.0,0.20000036
946,158.626182556,28.169014,-0.6666667,0.20000036
947,159.634862899625,27.464788,0.0,0.20000035
948,159.51516723625,26.760563,0.0,0.20000035
949,157.961719512875,26.056337,0.0,0.20000033
950,158.28212738025002,26.056337,-0.6666667,0.20000033
951,157.31422805775,25.352112,0.0,0.20000033
952,155.6008491515,25.352112,-0.6666667,0.20000033
953,162.4894065855,30.28169,2.0,3.8421567e-07
954,162.470098495375,30.28169,1.3333334,3.8421567e-07
955,162.03612899774998,30.28169,0.6666667,3.8421567e-07
956,163.463405609,29.577465,2.0,3.7528042e-07
957,161.6752815245,29.577465,1.3333334,3.7528042e-07
958,156.104019164875,29.577465,0.6666667,3.7528042e-07
959,154.16281890850001,28.87324,2.0,3.6634515e-07
960,165.20083999625,28.87324,1.3333334,3.6634515e-07
961,164.486143112125,28.87324,0.6666667,3.6634515e-07
962,161.43274497975,28.169014,2.0,3.574099e-07
963,161.452827453375,28.169014,1.3333334,3.574099e-07
964,162.507146835125,28.169014,0.6666667,3.574099e-07
965,168.90274238575,27.464788,2.0,3.4847466e-07
966,176.6028022765,27.464788,1.3333334,3.4847466e-07
967,162.7661705015,27.464788,0.6666667,3.4847466e-07
968,162.6071243285,26.760563,2.0,3.395394e-07
969,159.69701004025,26.760563,1.3333334,3.395394e-07
970,160.216567993125,26.760563,0.6666667,3.395394e-07
971,161.675338745125,26.056337,2.0,3.3060417e-07
972,158.51681613925,26.056337,1.3333334,3.3060417e-07
973,157.1701488495,26.056337,0.6666667,3.3060417e-07
974,160.54637145975,25.352112,2.0,3.2166892e-07
975,161.791791915875,25.352112,1.3333334,3.2166892e-07
976,160.84991455099998,25.352112,0.6666667,3.2166892e-07
977,156.534038544,24.647888,2.0,3.1273368e-07
978,162.37150955225,24.647888,1.3333334,3.1273368e-07
979,162.49518871325,24.647888,0.6666667,3.1273368e-07
980,154.65281868,30.28169,2.0,0.10000039
981,160.57479476925,30.28169,1.3333334,0.10000039
982,161.672765731875,30.28169,0.6666667,0.10000039
983,161.111644745125,29.577465,2.0,0.100000374
984,157.610582352,29.577465,1.3333334,0.100000374
985,157.3394594195,29.577465,0.6666667,0.100000374
986,167.265660286125,28.87324,2.0,0.10000037
987,175.6210136415,28.87324,1.3333334,0.10000037
988,160.59051513675,28.87324,0.6666667,0.10000037
989,161.5653591155,28.169014,2.0,0.10000036
990,161.049797058,28.169014,1.3333334,0.10000036
991,165.297739029,28.169014,0.6666667,0.10000036
992,163.82954311375,27.464788,2.0,0.10000035
993,157.8973407745,27.464788,1.3333334,0.10000035
994,159.17168235775,27.464788,0.6666667,0.10000035
995,160.607093811,26.760563,2.0,0.100000344
996,161.477041244375,26.760563,1.3333334,0.100000344
997,161.011163711375,26.760563,0.6666667,0.100000344
998,166.063671112,26.056337,2.0,0.10000033
999,165.635476112375,26.056337,1.3333334,0.10000033
1000,157.453353881875,26.056337,0.6666667,0.10000033
1001,156.087759018,25.352112,2.0,0.10000032
1002,160.61540985099998,25.352112,1.3333334,0.10000032
1003,161.43635559075,25.352112,0.6666667,0.10000032
1004,160.99477386475002,24.647888,2.0,0.100000314
1005,165.16270446775,30.28169,2.0,0.20000039
1006,159.234621048,30.28169,1.3333334,0.20000039
1007,159.73287391675,30.28169,0.6666667,0.20000039
1008,171.58966827400002,29.577465,2.0,0.20000038
1009,160.972122192,29.577465,1.3333334,0.20000038
1010,158.7708435055,29.577465,0.6666667,0.20000038
1011,163.127189636,28.87324,2.0,0.20000038
1012,168.642944336,28.87324,1.3333334,0.20000038
1013,141.451061249,28.87324,0.6666667,0.20000038
1014,143.6433677675,28.169014,2.0,0.20000036
1015,171.985687256,28.169014,1.3333334,0.20000036
1016,149.30434417700002,28.169014,0.6666667,0.20000036
1017,156.0223579405,27.464788,2.0,0.20000035
1018,163.971988678,27.464788,1.3333334,0.20000035
1019,167.56917190575,27.464788,0.6666667,0.20000035
1020,154.7467136385,26.760563,2.0,0.20000035
1021,152.78613090525,26.760563,1.3333334,0.20000035
1022,166.01357269300001,26.760563,0.6666667,0.20000035
1023,133.80103302,26.056337,2.0,0.20000033
1024,149.59048843375,26.056337,1.3333334,0.20000033
1025,165.7533950805,26.056337,0.6666667,0.20000033
1026,160.42541885375,25.352112,2.0,0.20000033
1027,159.6087265015,25.352112,1.3333334,0.20000033
1028,162.87357711800001,25.352112,0.6666667,0.20000033
1029,161.253692627,24.647888,2.0,0.20000032
1030,147.1280212405,35.915493,2.0,4.5569763e-07
1031,156.69064712525,35.915493,1.3333334,4.5569763e-07
1032,166.68330383275,35.915493,0.6666667,4.5569763e-07
1033,153.34178924525,35.21127,2.0,4.467624e-07
1034,150.7568855285,35.21127,1.3333334,4.467624e-07
1035,156.52068328875,35.21127,0.6666667,4.467624e-07
1036,151.0978393555,34.507042,2.0,4.3782714e-07
1037,161.589660645,34.507042,1.3333334,4.3782714e-07
1038,165.37612152125,34.507042,0.6666667,4.3782714e-07
1039,161.131450653,33.80282,2.0,4.2889192e-07
1040,153.82198715200002,33.80282,1.3333334,4.2889192e-07
1041,158.1137161255,33.80282,0.6666667,4.2889192e-07
1042,156.32612609875,33.09859,2.0,4.1995665e-07
1043,150.968475342,33.09859,1.3333334,4.1995665e-07
1044,162.8208999635,33.09859,0.6666667,4.1995665e-07
1045,159.62814712525,32.394367,2.0,4.110214e-07
1046,155.7527885435,32.394367,1.3333334,4.110214e-07
1047,159.8823776245,32.394367,0.6666667,4.110214e-07
1048,165.6350250245,31.690142,2.0,4.0208616e-07
1049,165.44615173350002,31.690142,1.3333334,4.0208616e-07
1050,164.316825867,31.690142,0.6666667,4.0208616e-07
1051,164.40228271450002,30.985916,2.0,3.931509e-07
1052,159.09197998025002,30.985916,1.3333334,3.931509e-07
1053,155.67190170275,30.985916,0.6666667,3.931509e-07
1054,160.7704582215,36.619717,2.0,0.10000046
1055,163.73304367075,36.619717,1.3333334,0.10000046
1056,160.70925903325,36.619717,0.6666667,0.10000046
1057,157.93122100850002,35.915493,2.0,0.100000456
1058,152.2395477295,35.915493,1.3333334,0.100000456
1059,153.71404647825,35.915493,0.6666667,0.100000456
1060,156.01063919075,35.21127,2.0,0.10000045
1061,161.00263214125,35.21127,1.3333334,0.10000045
1062,161.7499809265,35.21127,0.6666667,0.10000045
1063,154.62794494625,34.507042,2.0,0.10000044
1064,150.9284591675,34.507042,1.3333334,0.10000044
1065,154.5761413575,34.507042,0.6666667,0.10000044
1066,155.82327651975,33.80282,2.0,0.100000426
1067,160.110370636,33.80282,1.3333334,0.100000426
1068,163.8033638,33.80282,0.6666667,0.100000426
1069,163.11356735225002,33.09859,2.0,0.10000042
1070,159.979259491,33.09859,1.3333334,0.10000042
1071,158.1877822875,33.09859,0.6666667,0.10000042
1072,164.4086837765,32.394367,2.0,0.10000041
1073,164.25698852525,32.394367,1.3333334,0.10000041
1074,160.02853775025,32.394367,0.6666667,0.10000041
1075,159.23224639875,31.690142,2.0,0.100000404
1076,161.3553466795,31.690142,1.3333334,0.100000404
1077,162.32659530625,31.690142,0.6666667,0.100000404
1078,164.4552078245,30.985916,2.0,0.1000004
1079,162.148193359,30.985916,1.3333334,0.1000004
1080,161.15083694449999,30.985916,0.6666667,0.1000004
1081,158.91129303,36.619717,2.0,0.20000046
1082,158.6684036255,36.619717,1.3333334,0.20000046
1083,158.90410232525,36.619717,0.6666667,0.20000046
1084,160.456222534,35.915493,2.0,0.20000046
1085,162.7719421385,35.915493,1.3333334,0.20000046
1086,162.09481048549998,35.915493,0.6666667,0.20000046
1087,160.21451187125,35.21127,2.0,0.20000045
1088,161.35353469875,35.21127,1.3333334,0.20000045
1089,161.5075073245,35.21127,0.6666667,0.20000045
1090,159.9378089905,34.507042,2.0,0.20000044
1091,160.91174697875,34.507042,1.3333334,0.20000044
1092,160.590034485,34.507042,0.6666667,0.20000044
1093,161.902061462,33.80282,2.0,0.20000044
1094,160.23487853975,33.80282,1.3333334,0.20000044
1095,161.295211792,33.80282,0.6666667,0.20000044
1096,161.39219284075,33.09859,2.0,0.20000042
1097,159.9863204955,33.09859,1.3333334,0.20000042
1098,160.90254592875,33.09859,0.6666667,0.20000042
1099,160.5941085815,33.09859,0.0,0.20000042
1100,161.7570343015,32.394367,2.0,0.20000042
1101,160.27394103975,32.394367,1.3333334,0.20000042
1102,161.2573127745,32.394367,0.6666667,0.20000042
1103,161.28854370125,31.690142,2.0,0.2000004
1104,160.02407073975,31.690142,1.3333334,0.2000004
1105,160.89581680275,31.690142,0.6666667,0.2000004
1106,160.59680175749997,30.985916,2.0,0.20000039
1107,161.6481552125,30.985916,1.3333334,0.20000039
1108,160.32006454475,30.985916,0.6666667,0.20000039
1109,161.23375320425,42.957745,0.0,5.450501e-07
1110,161.19743728625,42.957745,-0.6666667,5.450501e-07
1111,160.05195999149998,42.957745,-1.3333334,5.450501e-07
1112,160.89131546024998,42.957745,-2.0,5.450501e-07
1113,160.5980529785,42.25352,0.0,5.3611484e-07
1114,161.557159424,42.25352,-0.6666667,5.3611484e-07
1115,160.364253998,42.25352,-1.3333334,5.3611484e-07
1116,161.2183914185,42.25352,-2.0,5.3611484e-07
1117,161.112850189,41.549297,0.0,5.271796e-07
1118,160.0705070495,41.549297,-0.6666667,5.271796e-07
1119,160.88973999025,41.549297,-1.3333334,5.271796e-07
1120,160.59873199449999,41.549297,-2.0,5.271796e-07
1121,161.47686767599998,40.84507,0.0,5.1824435e-07
1122,160.40307998675001,40.84507,-0.6666667,5.1824435e-07
1123,161.20423889175,40.84507,-1.3333334,5.1824435e-07
1124,161.0273742675,40.84507,-2.0,5.1824435e-07
1125,160.079711914,40.140846,0.0,5.0930913e-07
1126,160.891281128,40.140846,-0.6666667,5.0930913e-07
1127,160.59870147700002,40.140846,-1.3333334,5.0930913e-07
1128,161.4074172975,40.140846,-2.0,5.0930913e-07
1129,160.4358825685,39.43662,0.0,5.0037386e-07
1130,161.1853904725,39.43662,-0.6666667,5.0037386e-07
1131,160.93541717525,39.43662,-1.3333334,5.0037386e-07
1132,160.07908630375,39.43662,-2.0,5.0037386e-07
1133,160.895767212,38.732395,0.0,4.9143864e-07
1134,160.59776306150002,38.732395,-0.6666667,4.9143864e-07
1135,161.348548889,38.732395,-1.3333334,4.9143864e-07
1136,160.15892410275,38.732395,-2.0,4.9143864e-07
1137,160.6854286195,38.028168,0.0,4.8250337e-07
1138,161.2592697145,38.028168,-0.6666667,4.8250337e-07
1139,160.97734832775,38.028168,-1.3333334,4.8250337e-07
1140,161.3727874755,38.028168,-2.0,4.8250337e-07
1141,160.90785980200002,37.323944,0.0,4.7356812e-07
1142,162.570068359,37.323944,-0.6666667,4.7356812e-07
1143,161.65863800025,37.323944,-1.3333334,4.7356812e-07
1144,160.54574966425,37.323944,-2.0,4.7356812e-07
1145,156.80836868275,36.619717,-1.3333334,4.6463285e-07
1146,158.9991493225,36.619717,-2.0,4.6463285e-07
1147,165.998401642,42.957745,0.0,0.100000545
1148,167.27095031750002,42.957745,-0.6666667,0.100000545
1149,160.615394592,42.957745,-1.3333334,0.100000545
1150,162.111728668,42.957745,-2.0,0.100000545
1151,161.6132469175,42.25352,0.0,0.10000054
1152,156.70393753025002,42.25352,-0.6666667,0.10000054
1153,154.57363510125,42.25352,-1.3333334,0.10000054
1154,146.26729965225002,42.25352,-2.0,0.10000054
1155,137.1767730715,41.549297,0.0,0.10000053
1156,158.98267364499998,41.549297,-0.6666667,0.10000053
1157,160.94611740099998,41.549297,-1.3333334,0.10000053
1158,161.3176460265,41.549297,-2.0,0.10000053
1159,162.359512329,40.84507,0.0,0.100000516
1160,159.100601196,40.84507,-0.6666667,0.100000516
1161,146.207557678,40.84507,-1.3333334,0.100000516
1162,139.207206726,40.84507,-2.0,0.100000516
1163,160.55751037599998,40.140846,0.0,0.10000051
1164,160.13385391225,40.140846,-0.6666667,0.10000051
1165,160.242904663,40.140846,-1.3333334,0.10000051
1166,157.4454956055,40.140846,-2.0,0.10000051
1167,159.89404678325,39.43662,0.0,0.1000005
1168,170.29904174774998,39.43662,-0.6666667,0.1000005
1169,174.9253692625,39.43662,-1.3333334,0.1000005
1170,160.996749878,39.43662,-2.0,0.1000005
1171,159.7877578735,38.732395,0.0,0.10000049
1172,160.7802734375,38.732395,-0.6666667,0.10000049
1173,157.24268341075,38.732395,-1.3333334,0.10000049
1174,157.77137756349998,38.732395,-2.0,0.10000049
1175,144.958332061725,38.028168,0.0,0.100000486
1176,125.87749481194999,38.028168,-0.6666667,0.100000486
1177,161.797554016,38.028168,-1.3333334,0.100000486
1178,160.8971710205,38.028168,-2.0,0.100000486
1179,160.39363479625,37.323944,0.0,0.10000047
1180,161.79413223275,37.323944,-0.6666667,0.10000047
1181,163.71256637575,37.323944,-1.3333334,0.10000047
1182,146.341663360475,37.323944,-2.0,0.10000047
1183,128.05597686745,42.957745,0.0,0.20000055
1184,162.11077117899998,42.957745,-0.6666667,0.20000055
1185,161.34336853025002,42.957745,-1.3333334,0.20000055
1186,159.45747756975,42.957745,-2.0,0.20000055
1187,160.8227653505,42.25352,0.0,0.20000054
1188,157.74520111075,42.25352,-0.6666667,0.20000054
1189,162.0407524105,42.25352,-1.3333334,0.20000054
1190,171.89764404250002,42.25352,-2.0,0.20000054
1191,162.0135040285,41.549297,0.0,0.20000052
1192,161.2970581055,41.549297,-0.6666667,0.20000052
1193,159.54803085325,41.549297,-1.3333334,0.20000052
1194,162.85933303824999,41.549297,-2.0,0.20000052
1195,158.21117019625,40.84507,0.0,0.20000052
1196,136.56935691805,40.84507,-0.6666667,0.20000052
1197,123.9195899961,40.84507,-1.3333334,0.20000052
1198,162.264808655,40.84507,-2.0,0.20000052
1199,161.589076996,40.140846,0.0,0.20000051
1200,159.7866859435,40.140846,-0.6666667,0.20000051
1201,162.05564498875,40.140846,-1.3333334,0.20000051
1202,167.217311859,40.140846,-2.0,0.20000051
1203,147.32840156555,39.43662,0.0,0.20000051
1204,125.6734428406,39.43662,-0.6666667,0.20000051
1205,163.536216736,39.43662,-1.3333334,0.20000051
1206,162.566848755,39.43662,-2.0,0.20000051
1207,160.0980529785,38.732395,0.0,0.2000005
1208,158.34383392325,38.732395,-0.6666667,0.2000005
1209,163.66154098524999,38.732395,-1.3333334,0.2000005
1210,166.46210098275,38.732395,-2.0,0.2000005
1211,163.69016265850001,38.028168,0.0,0.20000048
1212,164.0710906985,38.028168,-0.6666667,0.20000048
1213,162.6656455995,38.028168,-1.3333334,0.20000048
1214,159.17514801024998,38.028168,-2.0,0.20000048
1215,149.44404792775,37.323944,0.0,0.20000048
1216,155.30506324775,37.323944,-0.6666667,0.20000048
1217,147.20815277105,37.323944,-1.3333334,0.20000048
1218,125.6041793821,37.323944,-2.0,0.20000048
1219,163.78639984149999,42.957745,2.0,5.450501e-07
1220,162.2007637025,42.957745,1.3333334,5.450501e-07
1221,158.0286102295,42.957745,0.6666667,5.450501e-07
1222,150.892507553,42.25352,2.0,5.3611484e-07
1223,148.05203056325,42.25352,1.3333334,5.3611484e-07
1224,138.7029495238,42.25352,0.6666667,5.3611484e-07
1225,127.6447601316,41.549297,2.0,5.271796e-07
1226,164.10260772700002,41.549297,1.3333334,5.271796e-07
1227,162.41090774525,41.549297,0.6666667,5.271796e-07
1228,157.61092758175,40.84507,2.0,5.1824435e-07
1229,161.55469131475002,40.84507,1.3333334,5.1824435e-07
1230,157.54006576525,40.84507,0.6666667,5.1824435e-07
1231,147.93177413925,40.140846,2.0,5.0930913e-07
1232,149.3901519775,40.140846,1.3333334,5.0930913e-07
1233,164.4365081785,40.140846,0.6666667,5.0930913e-07
1234,162.65007019025,39.43662,2.0,5.0037386e-07
1235,156.9836235045,39.43662,1.3333334,5.0037386e-07
1236,164.08849716175,39.43662,0.6666667,5.0037386e-07
1237,172.06016921975,38.732395,2.0,4.9143864e-07
1238,151.52554321275,38.732395,1.3333334,4.9143864e-07
1239,134.0041275025,38.732395,0.6666667,4.9143864e-07
1240,164.807144165,38.028168,2.0,4.8250337e-07
1241,162.93386077875,38.028168,1.3333334,4.8250337e-07
1242,160.42154312125,38.028168,0.6666667,4.8250337e-07
1243,168.46977233875,37.323944,2.0,4.7356812e-07
1244,173.84306335425,37.323944,1.3333334,4.7356812e-07
1245,158.88994979825,37.323944,0.6666667,4.7356812e-07
1246,147.2508087155,36.619717,2.0,4.6463285e-07
1247,164.299545288,36.619717,1.3333334,4.6463285e-07
1248,162.0567092895,36.619717,0.6666667,4.6463285e-07
1249,163.6754341125,42.957745,2.0,0.100000545
1250,157.35820961000002,42.957745,1.3333334,0.100000545
1251,160.2547245025,42.957745,0.6666667,0.100000545
1252,166.88026046725,42.25352,2.0,0.10000054
1253,160.4304962155,42.25352,1.3333334,0.10000054
1254,163.772087097,42.25352,0.6666667,0.10000054
1255,163.69890594474998,41.549297,2.0,0.10000053
1256,164.87330245975,41.549297,1.3333334,0.10000053
1257,157.426935196,41.549297,0.6666667,0.10000053
1258,163.09623527525,40.84507,2.0,0.100000516
1259,170.37406158425,40.84507,1.3333334,0.100000516
1260,163.288642883,40.84507,0.6666667,0.100000516
1261,161.2799987795,40.140846,2.0,0.10000051
1262,163.35150909425,40.140846,1.3333334,0.10000051
1263,165.48054122925,40.140846,0.6666667,0.10000051
1264,167.2079963685,39.43662,2.0,0.1000005
1265,172.915195465,39.43662,1.3333334,0.1000005
1266,171.599140167,39.43662,0.6666667,0.1000005
1267,166.24581909149998,38.732395,2.0,0.10000049
1268,161.63126373300003,38.732395,1.3333334,0.10000049
1269,162.46486663825002,38.732395,0.6666667,0.10000049
1270,165.65056228650002,38.028168,2.0,0.100000486
1271,163.57233810425,38.028168,1.3333334,0.100000486
1272,163.26139068575,38.028168,0.6666667,0.100000486
1273,164.61651229825,37.323944,2.0,0.10000047
1274,161.85226440399998,37.323944,1.3333334,0.10000047
1275,167.2208862305,37.323944,0.6666667,0.10000047
1276,164.4690093995,42.957745,2.0,0.20000055
1277,165.538131714,42.957745,1.3333334,0.20000055
1278,164.75283432,42.957745,0.6666667,0.20000055
1279,159.69787597625,42.25352,2.0,0.20000054
1280,159.8896713255,42.25352,1.3333334,0.20000054
1281,160.53012847899998,42.25352,0.6666667,0.20000054
1282,170.01722717299998,41.549297,2.0,0.20000052
1283,165.9332351685,41.549297,1.3333334,0.20000052
1284,162.96310806275,41.549297,0.6666667,0.20000052
1285,162.67889785775,40.84507,2.0,0.20000052
1286,160.7341156005,40.84507,1.3333334,0.20000052
1287,160.65828704825,40.84507,0.6666667,0.20000052
1288,161.1291656495,40.140846,2.0,0.20000051
1289,153.70815277100002,40.140846,1.3333334,0.20000051
1290,160.01622772225,40.140846,0.6666667,0.20000051
1291,163.45763397225,39.43662,2.0,0.20000051
1292,160.52752304075,39.43662,1.3333334,0.20000051
1293,159.9827919005,39.43662,0.6666667,0.20000051
1294,160.6557617185,38.732395,2.0,0.2000005
1295,161.8100204465,38.732395,1.3333334,0.2000005
1296,148.6066970825,38.732395,0.6666667,0.2000005
1297,159.1458244325,38.028168,2.0,0.20000048
1298,166.13270187375,38.028168,1.3333334,0.20000048
1299,161.73305129975,38.028168,0.6666667,0.20000048
1300,160.3770942685,37.323944,2.0,0.20000048
1301,160.20591735825,37.323944,1.3333334,0.20000048
1302,160.54329681399997,37.323944,0.6666667,0.20000048
1303,160.3810272215,46.478874,2.0,5.8972637e-07
1304,166.14042282100002,46.478874,1.3333334,5.8972637e-07
1305,168.30767059325,46.478874,0.6666667,5.8972637e-07
1306,163.20664215075,46.478874,0.0,5.8972637e-07
1307,160.73182678199998,46.478874,-0.6666667,5.8972637e-07
1308,160.44810867299998,46.478874,-1.3333334,5.8972637e-07
1309,161.1303253175,46.478874,-2.0,5.8972637e-07
1310,161.283531189,45.774647,2.0,5.807911e-07
1311,166.66404724125,45.774647,1.3333334,5.807911e-07
1312,169.62282943725,45.774647,0.6666667,5.807911e-07
1313,163.237926483,45.774647,0.0,5.807911e-07
1314,159.73465347274998,45.774647,-0.6666667,5.807911e-07
1315,160.988204956,45.774647,-1.3333334,5.807911e-07
1316,161.7818603515,45.774647,-2.0,5.807911e-07
1317,163.0849990845,45.070423,2.0,5.718559e-07
1318,153.279657364,45.070423,1.3333334,5.718559e-07
1319,156.36692619325,45.070423,0.6666667,5.718559e-07
1320,166.3512763975,45.070423,0.0,5.718559e-07
1321,162.40861511225,45.070423,-0.6666667,5.718559e-07
1322,160.9617004395,45.070423,-1.3333334,5.718559e-07
1323,160.5491867065,45.070423,-2.0,5.718559e-07
1324,163.208366394,44.366196,2.0,5.629206e-07
1325,146.6879291535,44.366196,1.3333334,5.629206e-07
1326,149.455701828,44.366196,0.6666667,5.629206e-07
1327,166.41256713849998,44.366196,0.0,5.629206e-07
1328,162.974998474,44.366196,-0.6666667,5.629206e-07
1329,161.50018310549999,44.366196,-1.3333334,5.629206e-07
1330,161.131591797,44.366196,-2.0,5.629206e-07
1331,162.1776809695,43.661972,2.0,5.539854e-07
1332,153.52645492575,43.661972,1.3333334,5.539854e-07
1333,155.703010559,43.661972,0.6666667,5.539854e-07
1334,163.91933822599998,43.661972,0.0,5.539854e-07
1335,161.82454681374998,43.661972,-0.6666667,5.539854e-07
1336,162.054096222,43.661972,-1.3333334,5.539854e-07
1337,161.7669830325,43.661972,-2.0,5.539854e-07
1338,162.31134796150002,47.183098,2.0,0.1000006
1339,154.298225403,47.183098,1.3333334,0.1000006
1340,156.28008651725,47.183098,0.6666667,0.1000006
1341,164.3782157895,47.183098,0.0,0.1000006
1342,161.39142990099998,46.478874,2.0,0.10000059
1343,160.4279670715,46.478874,1.3333334,0.10000059
1344,160.55443573000002,46.478874,0.6666667,0.10000059
1345,162.2234649655,46.478874,0.0,0.10000059
1346,155.24107360825,46.478874,-0.6666667,0.10000059
1347,157.08396148675,46.478874,-1.3333334,0.10000059
1348,163.078437805,46.478874,-2.0,0.10000059
1349,160.79331588725,45.774647,2.0,0.10000058
1350,161.23939514149998,45.774647,1.3333334,0.10000058
1351,161.13979339600002,45.774647,0.6666667,0.10000058
1352,161.82533264149998,45.774647,0.0,0.10000058
1353,155.3949661255,45.774647,-0.6666667,0.10000058
1354,156.73640823375,45.774647,-1.3333334,0.10000058
1355,162.94248962400002,45.774647,-2.0,0.10000058
1356,162.009536743,45.070423,2.0,0.100000575
1357,162.20421218875,45.070423,1.3333334,0.100000575
1358,161.7661132815,45.070423,0.6666667,0.100000575
1359,159.899108887,45.070423,0.0,0.100000575
1360,158.88698577899999,45.070423,-0.6666667,0.100000575
1361,159.9912376405,45.070423,-1.3333334,0.100000575
1362,162.15180587775,45.070423,-2.0,0.100000575
1363,160.67154312125,44.366196,2.0,0.10000056
1364,159.85038757325,44.366196,1.3333334,0.10000056
1365,160.5536880495,44.366196,0.6666667,0.10000056
1366,162.01649475099998,44.366196,0.0,0.10000056
1367,163.651714325,44.366196,-0.6666667,0.10000056
1368,163.057598114,44.366196,-1.3333334,0.10000056
1369,161.594127655,44.366196,-2.0,0.10000056
1370,160.78414916999998,43.661972,2.0,0.10000055
1371,160.17861938475,43.661972,1.3333334,0.10000055
1372,161.14893341049998,43.661972,0.6666667,0.10000055
1373,159.647377014,43.661972,0.0,0.10000055
1374,159.64829635625,43.661972,-0.6666667,0.10000055
1375,161.25425720225002,43.661972,-1.3333334,0.10000055
1376,162.97279357925,43.661972,-2.0,0.10000055
1377,161.60982131974998,47.183098,2.0,0.2000006
1378,160.95623397825,47.183098,1.3333334,0.2000006
1379,161.7791137695,47.183098,0.6666667,0.2000006
1380,158.5818099975,47.183098,0.0,0.2000006
1381,158.60081100475,46.478874,2.0,0.2000006
1382,160.32607269300001,46.478874,1.3333334,0.2000006
1383,161.06761932375,46.478874,0.6666667,0.2000006
1384,160.80332183824999,46.478874,0.0,0.2000006
1385,161.027908325,46.478874,-0.6666667,0.2000006
1386,160.552078247,46.478874,-1.3333334,0.2000006
1387,162.9810028075,46.478874,-2.0,0.2000006
1388,161.861415863,45.774647,2.0,0.20000058
1389,160.286277771,45.774647,1.3333334,0.20000058
1390,160.95048141475,45.774647,0.6666667,0.20000058
1391,162.593772888,45.774647,0.0,0.20000058
1392,145.1154823301,45.774647,-0.6666667,0.20000058
1393,127.11365509020001,45.774647,-1.3333334,0.20000058
1394,160.270057678,45.774647,-2.0,0.20000058
1395,160.331184387,45.070423,2.0,0.20000057
1396,160.99130249025,45.070423,1.3333334,0.20000057
1397,162.672557831,45.070423,0.6666667,0.20000057
1398,164.49494934075,45.070423,0.0,0.20000057
1399,137.7374267576,45.070423,-0.6666667,0.20000057
1400,110.2397766112,45.070423,-1.3333334,0.20000057
1401,159.40972900399998,45.070423,-2.0,0.20000057
1402,160.22333526625,44.366196,2.0,0.20000057
1403,162.009365082,44.366196,1.3333334,0.20000057
1404,163.49504089375,44.366196,0.6666667,0.20000057
1405,164.69722366324999,44.366196,0.0,0.20000057
1406,156.85523986799998,44.366196,-0.6666667,0.20000057
1407,148.3243255615,44.366196,-1.3333334,0.20000057
1408,160.944999695,44.366196,-2.0,0.20000057
1409,160.52455902125,43.661972,2.0,0.20000055
1410,161.62762832675,43.661972,1.3333334,0.20000055
1411,163.72346115125,43.661972,0.6666667,0.20000055
1412,165.08947372425,43.661972,0.0,0.20000055
1413,145.779037475575,43.661972,-0.6666667,0.20000055
1414,125.67491149915,43.661972,-1.3333334,0.20000055
1415,161.2953186035,43.661972,-2.0,0.20000055
1416,160.488925934,50.0,2.0,6.3440257e-07
1417,161.284011841,50.0,1.3333334,6.3440257e-07
1418,163.18146133425,50.0,0.6666667,6.3440257e-07
1419,163.92777633675001,50.0,-5.5511150000000004e-17,6.3440257e-07
1420,144.149555206325,50.0,-0.6666667,6.3440257e-07
1421,123.92098999014999,50.0,-1.3333334,6.3440257e-07
1422,161.259010315,50.0,-2.0,6.3440257e-07
1423,160.50908279425,49.295776,2.0,6.2546735e-07
1424,161.24790954575,49.295776,1.3333334,6.2546735e-07
1425,165.24228286725,49.295776,0.6666667,6.2546735e-07
1426,164.9406318665,49.295776,0.0,6.2546735e-07
1427,167.01553344725,49.295776,-0.6666667,6.2546735e-07
1428,171.897705078,49.295776,-1.3333334,6.2546735e-07
1429,161.231124878,49.295776,-2.0,6.2546735e-07
1430,160.52607345575,48.59155,2.0,6.165321e-07
1431,161.2177963255,48.59155,1.3333334,6.165321e-07
1432,163.76652145375,48.59155,0.6666667,6.165321e-07
1433,166.63159942625,48.59155,0.0,6.165321e-07
1434,148.2003917694,48.59155,-0.6666667,6.165321e-07
1435,128.0560569763,48.59155,-1.3333334,6.165321e-07
1436,161.209655762,48.59155,-2.0,6.165321e-07
1437,160.53920745850002,47.887325,2.0,6.0759686e-07
1438,161.19314956649998,47.887325,1.3333334,6.0759686e-07
1439,162.491333008,47.887325,0.6666667,6.0759686e-07
1440,163.932601929,47.887325,0.0,6.0759686e-07
1441,145.63882255565,47.887325,-0.6666667,6.0759686e-07
1442,125.8775672913,47.887325,-1.3333334,6.0759686e-07
1443,156.7909240725,47.887325,-2.0,6.0759686e-07
1444,159.73323059075,47.183098,2.0,5.986616e-07
1445,159.22695922825,47.183098,1.3333334,5.986616e-07
1446,154.05897521974998,47.183098,0.6666667,5.986616e-07
1447,158.4834632875,47.183098,0.0,5.986616e-07
1448,169.77637100225,47.183098,-0.6666667,5.986616e-07
1449,174.9253845215,47.183098,-1.3333334,5.986616e-07
1450,155.29964447,47.183098,-2.0,5.986616e-07
1451,160.81153106675,50.0,2.0,0.100000635
1452,160.0463638305,50.0,1.3333334,0.100000635
1453,152.4716415405,50.0,0.6666667,0.100000635
1454,151.6788749695,50.0,-1.6653345e-16,0.100000635
1455,145.69556045525,50.0,-0.6666667,0.100000635
1456,139.207344055,50.0,-1.3333334,0.100000635
1457,161.4143295285,50.0,-2.0,0.100000635
1458,163.75391387925,49.295776,2.0,0.10000063
1459,162.9536857605,49.295776,1.3333334,0.10000063
1460,160.35900497425,49.295776,0.6666667,0.10000063
1461,155.85643386825,49.295776,0.0,0.10000063
1462,143.9928207395,49.295776,-0.6666667,0.10000063
1463,137.1769104,49.295776,-1.3333334,0.10000063
1464,164.4365081785,49.295776,-2.0,0.10000063
1465,163.6633605955,48.59155,2.0,0.10000062
1466,160.19426727274998,48.59155,1.3333334,0.10000062
1467,158.325248718,48.59155,0.6666667,0.10000062
1468,164.8626174925,48.59155,0.0,0.10000062
1469,173.0810661315,48.59155,-0.6666667,0.10000062
1470,175.589073181,48.59155,-1.3333334,0.10000062
1471,164.804191589,48.59155,-2.0,0.10000062
1472,163.19892120325,47.887325,2.0,0.100000605
1473,158.04814910875,47.887325,1.3333334,0.100000605
1474,160.2370224,47.887325,0.6666667,0.100000605
1475,167.60271453875,47.887325,0.0,0.100000605
1476,155.8739070895,47.887325,-0.6666667,0.100000605
1477,142.5137825015,47.887325,-1.3333334,0.100000605
1478,165.132995605,47.887325,-2.0,0.100000605
1479,163.71050262424998,47.183098,-0.6666667,0.1000006
1480,159.49905395525,47.183098,-1.3333334,0.1000006
1481,153.19523239175,47.183098,-2.0,0.1000006
1482,159.24624633825,50.0,2.0,0.20000064
1483,154.18563652075,50.0,1.3333334,0.20000064
1484,139.5591468815,50.0,0.6666667,0.20000064
1485,164.7160949705,50.0,2.220446e-16,0.20000064
1486,163.38736343375,50.0,-0.6666667,0.20000064
1487,160.208381653,50.0,-1.3333334,0.20000064
1488,152.350532532,50.0,-2.0,0.20000064
1489,148.05198478725,49.295776,2.0,0.20000063
1490,162.13294410725,49.295776,1.3333334,0.20000063
1491,174.504852295,49.295776,0.6666667,0.20000063
1492,164.3245391845,49.295776,0.0,0.20000063
1493,163.09865188575,49.295776,-0.6666667,0.20000063
1494,160.23242187475,49.295776,-1.3333334,0.20000063
1495,163.59940719600002,49.295776,-2.0,0.20000063
1496,160.44153022775,48.59155,2.0,0.20000061
1497,149.97474288950002,48.59155,1.3333334,0.20000061
1498,147.673160553,48.59155,0.6666667,0.20000061
1499,163.9773483275,48.59155,0.0,0.20000061
1500,162.85775756825,48.59155,-0.6666667,0.20000061
1501,160.27702331525,48.59155,-1.3333334,0.20000061
1502,164.04312133775,48.59155,-2.0,0.20000061
1503,173.213710785,47.887325,2.0,0.20000061
1504,160.548192978,47.887325,1.3333334,0.20000061
1505,143.93932724,47.887325,0.6666667,0.20000061
1506,163.817993164,47.887325,0.0,0.20000061
1507,162.750190735,47.887325,-0.6666667,0.20000061
1508,160.3027801515,47.887325,-1.3333334,0.20000061
1509,162.77755737299998,47.887325,-2.0,0.20000061
1510,171.3540267945,47.183098,-0.6666667,0.2000006
1511,172.836151123,47.183098,-1.3333334,0.2000006
1512,169.596191406,47.183098,-2.0,0.2000006
