Node_ID    S_Mises    Orig.X      Orig.Y      Orig.Z 
556 165.86541748 24.647888 0.0 0.20000032
557 165.86541748 24.647888 -0.6666667 0.20000032
564 165.86541748 21.830986 0.0 0.20000029
563 165.86541748 22.535212 -0.6666667 0.20000029
52 165.86541748 7.0422535 -2.0 0.10000009
53 165.86541748 6.338028 -1.3333334 0.10000008
60 165.86541748 4.2253523 -2.0 0.10000005
59 165.86541748 4.2253523 -1.3333334 0.10000005
550 166.44090271 14.788733 -0.6666667 0.10000019
551 166.44090271 14.084507 0.0 0.10000018
558 166.44090271 23.943663 0.0 0.2000003
557 166.44090271 24.647888 -0.6666667 0.20000032
46 166.44090271 9.154929 -2.0 0.10000012
47 166.44090271 8.450705 -1.3333334 0.100000106
54 166.44090271 6.338028 -2.0 0.10000008
53 166.44090271 6.338028 -1.3333334 0.10000008
843 166.440948486 28.169014 -2.0 0.20000036
844 166.440948486 27.464788 -0.6666667 0.20000035
851 166.440948486 26.056337 -2.0 0.20000033
850 166.440948486 26.056337 -1.3333334 0.20000033
339 166.440948486 10.56338 2.0 0.100000136
340 166.440948486 10.56338 1.3333334 0.100000136
347 166.440948486 9.154929 0.6666667 0.10000012
346 166.440948486 9.154929 1.3333334 0.10000012
850 165.865386963 26.056337 -1.3333334 0.20000033
851 165.865386963 26.056337 -2.0 0.20000033
858 165.865386963 35.21127 0.0 4.467624e-07
857 165.865386963 35.915493 -0.6666667 4.5569763e-07
346 165.865386963 9.154929 1.3333334 0.10000012
347 165.865386963 9.154929 0.6666667 0.10000012
354 165.865386963 7.0422535 2.0 0.10000009
353 165.865386963 7.746479 0.6666667 0.1000001
562 166.988632202 22.535212 0.0 0.20000029
563 166.988632202 22.535212 -0.6666667 0.20000029
570 166.988632202 19.71831 0.0 0.20000026
569 166.988632202 20.422535 -0.6666667 0.20000026
58 166.988632202 4.9295774 -2.0 0.10000006
59 166.988632202 4.2253523 -1.3333334 0.10000005
66 166.988632202 2.1126761 -2.0 0.10000003
65 166.988632202 2.1126761 -1.3333334 0.10000003
836 166.988571167 30.28169 -1.3333334 0.20000039
837 166.988571167 30.28169 -2.0 0.20000039
844 166.988571167 27.464788 -0.6666667 0.20000035
843 166.988571167 28.169014 -2.0 0.20000036
332 166.988571167 12.676056 0.0 0.100000165
333 166.988571167 11.971831 2.0 0.10000015
340 166.988571167 10.56338 1.3333334 0.100000136
339 166.988571167 10.56338 2.0 0.100000136
1048 167.478820801 31.690142 2.0 4.0208616e-07
1049 167.478820801 31.690142 1.3333334 4.0208616e-07
1056 167.478820801 36.619717 0.6666667 0.10000046
1055 167.478820801 36.619717 1.3333334 0.10000046
544 167.478820801 16.90141 -0.6666667 0.10000022
545 167.478820801 16.197184 0.0 0.10000021
552 167.478820801 14.084507 -0.6666667 0.10000018
551 167.478820801 14.084507 0.0 0.10000018
829 167.478912354 33.09859 -2.0 0.20000042
830 167.478912354 32.394367 -1.3333334 0.20000042
837 167.478912354 30.28169 -2.0 0.20000039
836 167.478912354 30.28169 -1.3333334 0.20000039
325 167.478912354 7.746479 1.3333334 9.828773e-08
326 167.478912354 7.746479 0.6666667 9.828773e-08
333 167.478912354 11.971831 2.0 0.10000015
332 167.478912354 12.676056 0.0 0.100000165
542 168.03414917 17.605635 -0.6666667 0.100000225
543 168.03414917 16.90141 0.0 0.10000022
550 168.03414917 14.788733 -0.6666667 0.10000019
549 168.03414917 14.788733 0.0 0.10000019
38 168.03414917 11.971831 -2.0 0.10000015
39 168.03414917 11.267606 -1.3333334 0.10000014
46 168.03414917 9.154929 -2.0 0.10000012
45 168.03414917 9.154929 -1.3333334 0.10000012
822 168.034011841 35.21127 -1.3333334 0.20000045
823 168.034011841 35.21127 -2.0 0.20000045
830 168.034011841 32.394367 -1.3333334 0.20000042
829 168.034011841 33.09859 -2.0 0.20000042
318 168.034011841 9.154929 2.0 1.1615821e-07
319 168.034011841 9.154929 1.3333334 1.1615821e-07
326 168.034011841 7.746479 0.6666667 9.828773e-08
325 168.034011841 7.746479 1.3333334 9.828773e-08
561 168.5181427 23.239437 -0.6666667 0.2000003
562 168.5181427 22.535212 0.0 0.20000029
569 168.5181427 20.422535 -0.6666667 0.20000026
568 168.5181427 20.422535 0.0 0.20000026
57 168.5181427 4.9295774 -1.3333334 0.10000006
58 168.5181427 4.9295774 -2.0 0.10000006
65 168.5181427 2.1126761 -1.3333334 0.10000003
64 168.5181427 2.8169014 -2.0 0.10000004
1270 168.518341064 38.028168 2.0 0.100000486
1271 168.518341064 38.028168 1.3333334 0.100000486
1278 168.518341064 42.957745 0.6666667 0.20000055
1277 168.518341064 42.957745 1.3333334 0.20000055
766 168.518341064 29.577465 -1.3333334 3.7528042e-07
767 168.518341064 29.577465 -2.0 3.7528042e-07
774 168.518341064 26.760563 -1.3333334 3.395394e-07
773 168.518341064 27.464788 -2.0 3.4847466e-07
540 168.829727173 18.309858 -0.6666667 0.10000023
541 168.829727173 17.605635 0.0 0.100000225
548 168.829727173 15.492958 -0.6666667 0.100000195
547 168.829727173 15.492958 0.0 0.100000195
36 168.829727173 0.0 -2.0 0.0
37 168.829727173 11.971831 -1.3333334 0.10000015
44 168.829727173 9.859155 -2.0 0.10000013
43 168.829727173 9.859155 -1.3333334 0.10000013
1277 168.82951355 42.957745 1.3333334 0.20000055
1278 168.82951355 42.957745 0.6666667 0.20000055
1285 168.82951355 40.84507 2.0 0.20000052
1284 168.82951355 41.549297 0.6666667 0.20000052
773 168.82951355 27.464788 -2.0 3.4847466e-07
774 168.82951355 26.760563 -1.3333334 3.395394e-07
781 168.82951355 24.647888 -2.0 3.1273368e-07
780 168.82951355 24.647888 -1.3333334 3.1273368e-07
537 169.30255127 19.014084 0.0 0.10000024
538 169.30255127 19.014084 -0.6666667 0.10000024
545 169.30255127 16.197184 0.0 0.10000021
544 169.30255127 16.90141 -0.6666667 0.10000022
33 169.30255127 0.70422536 -1.3333334 8.935248e-09
34 169.30255127 0.70422536 -2.0 8.935248e-09
41 169.30255127 10.56338 -1.3333334 0.100000136
40 169.30255127 11.267606 -2.0 0.10000014
1275 169.302856445 37.323944 0.6666667 0.10000047
1276 169.302856445 42.957745 2.0 0.20000055
1283 169.302856445 41.549297 1.3333334 0.20000052
1282 169.302856445 41.549297 2.0 0.20000052
771 169.302856445 28.169014 -2.0 3.574099e-07
772 169.302856445 27.464788 -1.3333334 3.4847466e-07
779 169.302856445 25.352112 -2.0 3.2166892e-07
778 169.302856445 25.352112 -1.3333334 3.2166892e-07
536 169.773025513 19.71831 -0.6666667 0.100000255
537 169.773025513 19.014084 0.0 0.10000024
544 169.773025513 16.90141 -0.6666667 0.10000022
543 169.773025513 16.90141 0.0 0.10000022
32 169.773025513 1.4084507 -2.0 1.7870496e-08
33 169.773025513 0.70422536 -1.3333334 8.935248e-09
40 169.773025513 11.267606 -2.0 0.10000014
39 169.773025513 11.267606 -1.3333334 0.10000014
1282 169.772674561 41.549297 2.0 0.20000052
1283 169.772674561 41.549297 1.3333334 0.20000052
1290 169.772674561 40.140846 0.6666667 0.20000051
1289 169.772674561 40.140846 1.3333334 0.20000051
778 169.772674561 25.352112 -1.3333334 3.2166892e-07
779 169.772674561 25.352112 -2.0 3.2166892e-07
786 169.772674561 35.21127 -1.3333334 0.10000045
785 169.772674561 35.915493 -2.0 0.100000456
523 170.80581665 23.943663 0.0 0.10000031
524 170.80581665 23.943663 -0.6666667 0.10000031
531 170.80581665 21.12676 0.0 0.10000027
530 170.80581665 21.830986 -0.6666667 0.10000028
19 170.80581665 5.633803 -1.3333334 7.1481985e-08
20 170.80581665 5.633803 -2.0 7.1481985e-08
27 170.80581665 2.8169014 -1.3333334 3.5740992e-08
26 170.80581665 3.5211267 -2.0 4.4676238e-08
786 170.806060791 35.21127 -1.3333334 0.10000045
787 170.806060791 35.21127 -2.0 0.10000045
794 170.806060791 32.394367 -1.3333334 0.10000041
793 170.806060791 33.09859 -2.0 0.10000042
282 170.806060791 4.9295774 2.0 0.20000006
283 170.806060791 4.9295774 1.3333334 0.20000006
290 170.806060791 3.5211267 0.6666667 0.20000005
289 170.806060791 3.5211267 1.3333334 0.20000005
1025 171.25579834 26.056337 0.6666667 0.20000033
1026 171.25579834 25.352112 2.0 0.20000033
1033 171.25579834 35.21127 2.0 4.467624e-07
1032 171.25579834 35.915493 0.6666667 4.5569763e-07
521 171.25579834 24.647888 0.0 0.100000314
522 171.25579834 24.647888 -0.6666667 0.100000314
529 171.25579834 21.830986 0.0 0.10000028
528 171.25579834 22.535212 -0.6666667 0.100000285
1297 171.255477905 38.028168 2.0 0.20000048
1298 171.255477905 38.028168 1.3333334 0.20000048
1305 171.255477905 46.478874 0.6666667 5.8972637e-07
1304 171.255477905 46.478874 1.3333334 5.8972637e-07
793 171.255477905 33.09859 -2.0 0.10000042
794 171.255477905 32.394367 -1.3333334 0.10000041
801 171.255477905 30.28169 -2.0 0.10000039
800 171.255477905 30.28169 -1.3333334 0.10000039
1019 172.050994873 27.464788 0.6666667 0.20000035
1020 172.050994873 26.760563 2.0 0.20000035
1027 172.050994873 25.352112 1.3333334 0.20000033
1026 172.050994873 25.352112 2.0 0.20000033
515 172.050994873 14.084507 0.0 1.7870495e-07
516 172.050994873 14.084507 -0.6666667 1.7870495e-07
523 172.050994873 23.943663 0.0 0.10000031
522 172.050994873 24.647888 -0.6666667 0.100000314
1304 172.051269531 46.478874 1.3333334 5.8972637e-07
1305 172.051269531 46.478874 0.6666667 5.8972637e-07
1312 172.051269531 45.774647 0.6666667 5.807911e-07
1311 172.051269531 45.774647 1.3333334 5.807911e-07
800 172.051269531 30.28169 -1.3333334 0.10000039
801 172.051269531 30.28169 -2.0 0.10000039
808 172.051269531 27.464788 -0.6666667 0.10000035
807 172.051269531 28.169014 -2.0 0.10000036
534 171.569534302 20.422535 -0.6666667 0.10000026
535 171.569534302 19.71831 0.0 0.100000255
542 171.569534302 17.605635 -0.6666667 0.100000225
541 171.569534302 17.605635 0.0 0.100000225
30 171.569534302 2.1126761 -2.0 2.6805743e-08
31 171.569534302 1.4084507 -1.3333334 1.7870496e-08
38 171.569534302 11.971831 -2.0 0.10000015
37 171.569534302 11.971831 -1.3333334 0.10000015
1311 171.56867981 45.774647 1.3333334 5.807911e-07
1312 171.56867981 45.774647 0.6666667 5.807911e-07
1319 171.56867981 45.070423 0.6666667 5.718559e-07
1318 171.56867981 45.070423 1.3333334 5.718559e-07
807 171.56867981 28.169014 -2.0 0.10000036
808 171.56867981 27.464788 -0.6666667 0.10000035
815 171.56867981 26.056337 -2.0 0.10000033
814 171.56867981 26.056337 -1.3333334 0.10000033
1014 171.791870117 28.169014 2.0 0.20000036
1015 171.791870117 28.169014 1.3333334 0.20000036
1022 171.791870117 26.760563 0.6666667 0.20000035
1021 171.791870117 26.760563 1.3333334 0.20000035
510 171.791870117 16.197184 0.0 2.055107e-07
511 171.791870117 16.197184 -0.6666667 2.055107e-07
518 171.791870117 13.380281 -0.6666667 1.697697e-07
517 171.791870117 13.380281 0.0 1.697697e-07
815 171.791824341 26.056337 -2.0 0.10000033
816 171.791824341 25.352112 -1.3333334 0.10000032
823 171.791824341 35.21127 -2.0 0.20000045
822 171.791824341 35.21127 -1.3333334 0.20000045
311 171.791824341 11.267606 0.6666667 1.4296397e-07
312 171.791824341 10.56338 2.0 1.3402871e-07
319 171.791824341 9.154929 1.3333334 1.1615821e-07
318 171.791824341 9.154929 2.0 1.1615821e-07
1011 169.433639526 28.87324 2.0 0.20000038
1012 169.433639526 28.87324 1.3333334 0.20000038
1019 169.433639526 27.464788 0.6666667 0.20000035
1018 169.433639526 27.464788 1.3333334 0.20000035
507 169.433639526 17.605635 -0.6666667 2.233812e-07
508 169.433639526 16.90141 0.0 2.1444595e-07
515 169.433639526 14.084507 0.0 1.7870495e-07
514 169.433639526 14.788733 -0.6666667 1.876402e-07
762 169.424682617 30.985916 -1.3333334 3.931509e-07
763 169.424682617 30.985916 -2.0 3.931509e-07
770 169.424682617 28.169014 -1.3333334 3.574099e-07
769 169.424682617 28.87324 -2.0 3.6634515e-07
258 169.424682617 3.5211267 2.0 0.100000046
259 169.424682617 3.5211267 1.3333334 0.100000046
266 169.424682617 2.1126761 0.6666667 0.10000003
265 169.424682617 2.1126761 1.3333334 0.10000003
526 171.335998535 23.239437 -0.6666667 0.1000003
527 171.335998535 22.535212 0.0 0.100000285
534 171.335998535 20.422535 -0.6666667 0.10000026
533 171.335998535 20.422535 0.0 0.10000026
22 171.335998535 4.9295774 -2.0 6.254673e-08
23 171.335998535 4.2253523 -1.3333334 5.361149e-08
30 171.335998535 2.1126761 -2.0 2.6805743e-08
29 171.335998535 2.1126761 -1.3333334 2.6805743e-08
1237 171.33442688 38.732395 2.0 4.9143864e-07
1238 171.33442688 38.732395 1.3333334 4.9143864e-07
1245 171.33442688 37.323944 0.6666667 4.7356812e-07
1244 171.33442688 37.323944 1.3333334 4.7356812e-07
733 171.33442688 21.830986 2.0 0.20000029
734 171.33442688 21.830986 1.3333334 0.20000029
741 171.33442688 20.422535 0.6666667 0.20000026
740 171.33442688 20.422535 1.3333334 0.20000026
505 167.437866211 18.309858 -0.6666667 2.3231642e-07
506 167.437866211 17.605635 0.0 2.233812e-07
513 167.437866211 15.492958 -0.6666667 1.9657546e-07
512 167.437866211 15.492958 0.0 1.9657546e-07
1 167.437866211 11.971831 -1.3333334 1.5189921e-07
2 167.437866211 11.971831 -2.0 1.5189921e-07
9 167.437866211 9.154929 -1.3333334 1.1615821e-07
8 167.437866211 9.859155 -2.0 1.2509346e-07
720 167.446975708 19.014084 1.3333334 0.10000024
721 167.446975708 19.014084 0.6666667 0.10000024
728 167.446975708 23.239437 1.3333334 0.2000003
727 167.446975708 23.239437 2.0 0.2000003
216 167.446975708 -2.5376103e-09 -0.6666667 0.2
217 167.446975708 6.338028 2.0 8.041723e-08
224 167.446975708 4.9295774 0.6666667 6.254673e-08
223 167.446975708 4.9295774 1.3333334 6.254673e-08
1009 160.864501953 29.577465 1.3333334 0.20000038
1010 160.864501953 29.577465 0.6666667 0.20000038
1017 160.864501953 27.464788 2.0 0.20000035
1016 160.864501953 28.169014 0.6666667 0.20000036
505 160.864501953 18.309858 -0.6666667 2.3231642e-07
506 160.864501953 17.605635 0.0 2.233812e-07
513 160.864501953 15.492958 -0.6666667 1.9657546e-07
512 160.864501953 15.492958 0.0 1.9657546e-07
533 168.172042847 20.422535 0.0 0.10000026
534 168.172042847 20.422535 -0.6666667 0.10000026
541 168.172042847 17.605635 0.0 0.100000225
540 168.172042847 18.309858 -0.6666667 0.10000023
29 168.172042847 2.1126761 -1.3333334 2.6805743e-08
30 168.172042847 2.1126761 -2.0 2.6805743e-08
37 168.172042847 11.971831 -1.3333334 0.10000015
36 168.172042847 0.0 -2.0 0.0
1224 160.874511719 42.25352 0.6666667 5.3611484e-07
1225 160.874511719 41.549297 2.0 5.271796e-07
1232 160.874511719 40.140846 1.3333334 5.0930913e-07
1231 160.874511719 40.140846 2.0 5.0930913e-07
720 160.874511719 19.014084 1.3333334 0.10000024
721 160.874511719 19.014084 0.6666667 0.10000024
728 160.874511719 23.239437 1.3333334 0.2000003
727 160.874511719 23.239437 2.0 0.2000003
741 168.17098999 20.422535 0.6666667 0.20000026
742 168.17098999 19.71831 2.0 0.20000026
749 168.17098999 35.915493 -2.0 4.5569763e-07
748 168.17098999 35.915493 -1.3333334 4.5569763e-07
237 168.17098999 1.4084507 2.0 1.7870496e-08
238 168.17098999 1.4084507 1.3333334 1.7870496e-08
245 168.17098999 0.0 0.6666667 0.0
244 168.17098999 0.0 1.3333334 0.0
512 155.526199341 15.492958 0.0 1.9657546e-07
513 155.526199341 15.492958 -0.6666667 1.9657546e-07
520 155.526199341 12.676056 -0.6666667 1.6083446e-07
519 155.526199341 12.676056 0.0 1.6083446e-07
8 155.526199341 9.859155 -2.0 1.2509346e-07
9 155.526199341 9.154929 -1.3333334 1.1615821e-07
16 155.526199341 7.0422535 -2.0 8.9352476e-08
15 155.526199341 7.0422535 -1.3333334 8.9352476e-08
1030 164.110900879 35.915493 2.0 4.5569763e-07
1031 164.110900879 35.915493 1.3333334 4.5569763e-07
1038 164.110900879 34.507042 0.6666667 4.3782714e-07
1037 164.110900879 34.507042 1.3333334 4.3782714e-07
526 164.110900879 23.239437 -0.6666667 0.1000003
527 164.110900879 22.535212 0.0 0.100000285
534 164.110900879 20.422535 -0.6666667 0.10000026
533 164.110900879 20.422535 0.0 0.10000026
727 155.539672852 23.239437 2.0 0.2000003
728 155.539672852 23.239437 1.3333334 0.2000003
735 155.539672852 21.830986 0.6666667 0.20000029
734 155.539672852 21.830986 1.3333334 0.20000029
223 155.539672852 4.9295774 1.3333334 6.254673e-08
224 155.539672852 4.9295774 0.6666667 6.254673e-08
231 155.539672852 2.8169014 2.0 3.5740992e-08
230 155.539672852 3.5211267 0.6666667 4.4676238e-08
1245 164.111663818 37.323944 0.6666667 4.7356812e-07
1246 164.111663818 36.619717 2.0 4.6463285e-07
1253 164.111663818 42.25352 1.3333334 0.10000054
1252 164.111663818 42.25352 2.0 0.10000054
741 164.111663818 20.422535 0.6666667 0.20000026
742 164.111663818 19.71831 2.0 0.20000026
749 164.111663818 35.915493 -2.0 4.5569763e-07
748 164.111663818 35.915493 -1.3333334 4.5569763e-07
508 169.684844971 16.90141 0.0 2.1444595e-07
509 169.684844971 16.90141 -0.6666667 2.1444595e-07
516 169.684844971 14.084507 -0.6666667 1.7870495e-07
515 169.684844971 14.084507 0.0 1.7870495e-07
4 169.684844971 11.267606 -2.0 1.4296397e-07
5 169.684844971 10.56338 -1.3333334 1.3402871e-07
12 169.684844971 8.450705 -2.0 1.0722298e-07
11 169.684844971 8.450705 -1.3333334 1.0722298e-07
1259 169.67779541 40.84507 1.3333334 0.100000516
1260 169.67779541 40.84507 0.6666667 0.100000516
1267 169.67779541 38.732395 2.0 0.10000049
1266 169.67779541 39.43662 0.6666667 0.1000005
755 169.67779541 33.80282 -2.0 4.2889192e-07
756 169.67779541 33.09859 -1.3333334 4.1995665e-07
763 169.67779541 30.985916 -2.0 3.931509e-07
762 169.67779541 30.985916 -1.3333334 3.931509e-07
1012 167.270706177 28.87324 1.3333334 0.20000038
1013 167.270706177 28.87324 0.6666667 0.20000038
1020 167.270706177 26.760563 2.0 0.20000035
1019 167.270706177 27.464788 0.6666667 0.20000035
508 167.270706177 16.90141 0.0 2.1444595e-07
509 167.270706177 16.90141 -0.6666667 2.1444595e-07
516 167.270706177 14.084507 -0.6666667 1.7870495e-07
515 167.270706177 14.084507 0.0 1.7870495e-07
813 167.266387939 26.760563 -2.0 0.100000344
814 167.266387939 26.056337 -1.3333334 0.10000033
821 167.266387939 35.915493 -2.0 0.20000046
820 167.266387939 35.915493 -1.3333334 0.20000046
309 167.266387939 11.267606 2.0 1.4296397e-07
310 167.266387939 11.267606 1.3333334 1.4296397e-07
317 167.266387939 9.859155 0.6666667 1.2509346e-07
316 167.266387939 9.859155 1.3333334 1.2509346e-07
513 170.615997314 15.492958 -0.6666667 1.9657546e-07
514 170.615997314 14.788733 -0.6666667 1.876402e-07
521 170.615997314 24.647888 0.0 0.100000314
520 170.615997314 12.676056 -0.6666667 1.6083446e-07
9 170.615997314 9.154929 -1.3333334 1.1615821e-07
10 170.615997314 9.154929 -2.0 1.1615821e-07
17 170.615997314 6.338028 -1.3333334 8.041723e-08
16 170.615997314 7.0422535 -2.0 8.9352476e-08
1319 170.615432739 45.070423 0.6666667 5.718559e-07
1320 170.615432739 45.070423 0.0 5.718559e-07
1327 170.615432739 44.366196 0.0 5.629206e-07
1326 170.615432739 44.366196 0.6666667 5.629206e-07
815 170.615432739 26.056337 -2.0 0.10000033
816 170.615432739 25.352112 -1.3333334 0.10000032
823 170.615432739 35.21127 -2.0 0.20000045
822 170.615432739 35.21127 -1.3333334 0.20000045
1017 168.404815674 27.464788 2.0 0.20000035
1018 168.404815674 27.464788 1.3333334 0.20000035
1025 168.404815674 26.056337 0.6666667 0.20000033
1024 168.404815674 26.056337 1.3333334 0.20000033
513 168.404815674 15.492958 -0.6666667 1.9657546e-07
514 168.404815674 14.788733 -0.6666667 1.876402e-07
521 168.404815674 24.647888 0.0 0.100000314
520 168.404815674 12.676056 -0.6666667 1.6083446e-07
1320 168.402786255 45.070423 0.0 5.718559e-07
1321 168.402786255 45.070423 -0.6666667 5.718559e-07
1328 168.402786255 44.366196 -0.6666667 5.629206e-07
1327 168.402786255 44.366196 0.0 5.629206e-07
816 168.402786255 25.352112 -1.3333334 0.10000032
817 168.402786255 25.352112 -2.0 0.10000032
824 168.402786255 34.507042 -1.3333334 0.20000044
823 168.402786255 35.21127 -2.0 0.20000045
1031 170.291809082 35.915493 1.3333334 4.5569763e-07
1032 170.291809082 35.915493 0.6666667 4.5569763e-07
1039 170.291809082 33.80282 2.0 4.2889192e-07
1038 170.291809082 34.507042 0.6666667 4.3782714e-07
527 170.291809082 22.535212 0.0 0.100000285
528 170.291809082 22.535212 -0.6666667 0.100000285
535 170.291809082 19.71831 0.0 0.100000255
534 170.291809082 20.422535 -0.6666667 0.10000026
808 170.29045105 27.464788 -0.6666667 0.10000035
809 170.29045105 27.464788 -1.3333334 0.10000035
816 170.29045105 25.352112 -1.3333334 0.10000032
815 170.29045105 26.056337 -2.0 0.10000033
304 170.29045105 -2.5376103e-09 1.3333334 0.2
305 170.29045105 -2.5376103e-09 0.6666667 0.2
312 170.29045105 10.56338 2.0 1.3402871e-07
311 170.29045105 11.267606 0.6666667 1.4296397e-07
1038 167.256851196 34.507042 0.6666667 4.3782714e-07
1039 167.256851196 33.80282 2.0 4.2889192e-07
1046 167.256851196 32.394367 1.3333334 4.110214e-07
1045 167.256851196 32.394367 2.0 4.110214e-07
534 167.256851196 20.422535 -0.6666667 0.10000026
535 167.256851196 19.71831 0.0 0.100000255
542 167.256851196 17.605635 -0.6666667 0.100000225
541 167.256851196 17.605635 0.0 0.100000225
516 169.787963867 14.084507 -0.6666667 1.7870495e-07
517 169.787963867 13.380281 0.0 1.697697e-07
524 169.787963867 23.943663 -0.6666667 0.10000031
523 169.787963867 23.943663 0.0 0.10000031
12 169.787963867 8.450705 -2.0 1.0722298e-07
13 169.787963867 7.746479 -1.3333334 9.828773e-08
20 169.787963867 5.633803 -2.0 7.1481985e-08
19 169.787963867 5.633803 -1.3333334 7.1481985e-08
801 169.788269043 30.28169 -2.0 0.10000039
802 169.788269043 29.577465 -1.3333334 0.100000374
809 169.788269043 27.464788 -1.3333334 0.10000035
808 169.788269043 27.464788 -0.6666667 0.10000035
297 169.788269043 1.4084507 2.0 0.20000002
298 169.788269043 1.4084507 1.3333334 0.20000002
305 169.788269043 -2.5376103e-09 0.6666667 0.2
304 169.788269043 -2.5376103e-09 1.3333334 0.2
517 166.388900757 13.380281 0.0 1.697697e-07
518 166.388900757 13.380281 -0.6666667 1.697697e-07
525 166.388900757 23.239437 0.0 0.1000003
524 166.388900757 23.943663 -0.6666667 0.10000031
13 166.388900757 7.746479 -1.3333334 9.828773e-08
14 166.388900757 7.746479 -2.0 9.828773e-08
21 166.388900757 4.9295774 -1.3333334 6.254673e-08
20 166.388900757 5.633803 -2.0 7.1481985e-08
1305 166.388778687 46.478874 0.6666667 5.8972637e-07
1306 166.388778687 46.478874 0.0 5.8972637e-07
1313 166.388778687 45.774647 0.0 5.807911e-07
1312 166.388778687 45.774647 0.6666667 5.807911e-07
801 166.388778687 30.28169 -2.0 0.10000039
802 166.388778687 29.577465 -1.3333334 0.100000374
809 166.388778687 27.464788 -1.3333334 0.10000035
808 166.388778687 27.464788 -0.6666667 0.10000035
528 168.355026245 22.535212 -0.6666667 0.100000285
529 168.355026245 21.830986 0.0 0.10000028
536 168.355026245 19.71831 -0.6666667 0.100000255
535 168.355026245 19.71831 0.0 0.100000255
24 168.355026245 4.2253523 -2.0 5.361149e-08
25 168.355026245 3.5211267 -1.3333334 4.4676238e-08
32 168.355026245 1.4084507 -2.0 1.7870496e-08
31 168.355026245 1.4084507 -1.3333334 1.7870496e-08
794 168.354476929 32.394367 -1.3333334 0.10000041
795 168.354476929 32.394367 -2.0 0.10000041
802 168.354476929 29.577465 -1.3333334 0.100000374
801 168.354476929 30.28169 -2.0 0.10000039
290 168.354476929 3.5211267 0.6666667 0.20000005
291 168.354476929 2.8169014 2.0 0.20000003
298 168.354476929 1.4084507 1.3333334 0.20000002
297 168.354476929 1.4084507 2.0 0.20000002
795 165.359680176 32.394367 -2.0 0.10000041
796 165.359680176 31.690142 -1.3333334 0.100000404
803 165.359680176 29.577465 -2.0 0.100000374
802 165.359680176 29.577465 -1.3333334 0.100000374
291 165.359680176 2.8169014 2.0 0.20000003
292 165.359680176 2.8169014 1.3333334 0.20000003
299 165.359680176 1.4084507 0.6666667 0.20000002
298 165.359680176 1.4084507 1.3333334 0.20000002
524 167.376571655 23.943663 -0.6666667 0.10000031
525 167.376571655 23.239437 0.0 0.1000003
532 167.376571655 21.12676 -0.6666667 0.10000027
531 167.376571655 21.12676 0.0 0.10000027
20 167.376571655 5.633803 -2.0 7.1481985e-08
21 167.376571655 4.9295774 -1.3333334 6.254673e-08
28 167.376571655 2.8169014 -2.0 3.5740992e-08
27 167.376571655 2.8169014 -1.3333334 3.5740992e-08
1290 167.37677002 40.140846 0.6666667 0.20000051
1291 167.37677002 39.43662 2.0 0.20000051
1298 167.37677002 38.028168 1.3333334 0.20000048
1297 167.37677002 38.028168 2.0 0.20000048
786 167.37677002 35.21127 -1.3333334 0.10000045
787 167.37677002 35.21127 -2.0 0.10000045
794 167.37677002 32.394367 -1.3333334 0.10000041
793 167.37677002 33.09859 -2.0 0.10000042
1027 164.80279541 25.352112 1.3333334 0.20000033
1028 164.80279541 25.352112 0.6666667 0.20000033
1035 164.80279541 35.21127 0.6666667 4.467624e-07
1034 164.80279541 35.21127 1.3333334 4.467624e-07
523 164.80279541 23.943663 0.0 0.10000031
524 164.80279541 23.943663 -0.6666667 0.10000031
531 164.80279541 21.12676 0.0 0.10000027
530 164.80279541 21.830986 -0.6666667 0.10000028
787 164.80279541 35.21127 -2.0 0.10000045
788 164.80279541 34.507042 -1.3333334 0.10000044
795 164.80279541 32.394367 -2.0 0.10000041
794 164.80279541 32.394367 -1.3333334 0.10000041
283 164.80279541 4.9295774 1.3333334 0.20000006
284 164.80279541 4.9295774 0.6666667 0.20000006
291 164.80279541 2.8169014 2.0 0.20000003
290 164.80279541 3.5211267 0.6666667 0.20000005
1040 166.78692627 33.80282 1.3333334 4.2889192e-07
1041 166.78692627 33.80282 0.6666667 4.2889192e-07
1048 166.78692627 31.690142 2.0 4.0208616e-07
1047 166.78692627 32.394367 0.6666667 4.110214e-07
536 166.78692627 19.71831 -0.6666667 0.100000255
537 166.78692627 19.014084 0.0 0.10000024
544 166.78692627 16.90141 -0.6666667 0.10000022
543 166.78692627 16.90141 0.0 0.10000022
779 166.786697388 25.352112 -2.0 3.2166892e-07
780 166.786697388 24.647888 -1.3333334 3.1273368e-07
787 166.786697388 35.21127 -2.0 0.10000045
786 166.786697388 35.21127 -1.3333334 0.10000045
275 166.786697388 -1.2688052e-09 0.6666667 0.1
276 166.786697388 6.338028 2.0 0.20000008
283 166.786697388 4.9295774 1.3333334 0.20000006
282 166.786697388 4.9295774 2.0 0.20000006
530 164.439025879 21.830986 -0.6666667 0.10000028
531 164.439025879 21.12676 0.0 0.10000027
538 164.439025879 19.014084 -0.6666667 0.10000024
537 164.439025879 19.014084 0.0 0.10000024
26 164.439025879 3.5211267 -2.0 4.4676238e-08
27 164.439025879 2.8169014 -1.3333334 3.5740992e-08
34 164.439025879 0.70422536 -2.0 8.935248e-09
33 164.439025879 0.70422536 -1.3333334 8.935248e-09
538 166.55305481 19.014084 -0.6666667 0.10000024
539 166.55305481 18.309858 0.0 0.10000023
546 166.55305481 16.197184 -0.6666667 0.10000021
545 166.55305481 16.197184 0.0 0.10000021
34 166.55305481 0.70422536 -2.0 8.935248e-09
35 166.55305481 0.0 -1.3333334 0.0
42 166.55305481 10.56338 -2.0 0.100000136
41 166.55305481 10.56338 -1.3333334 0.100000136
764 166.553192139 30.28169 -1.3333334 3.8421567e-07
765 166.553192139 30.28169 -2.0 3.8421567e-07
772 166.553192139 27.464788 -1.3333334 3.4847466e-07
771 166.553192139 28.169014 -2.0 3.574099e-07
260 166.553192139 3.5211267 0.6666667 0.100000046
261 166.553192139 2.8169014 2.0 0.10000004
268 166.553192139 1.4084507 1.3333334 0.10000002
267 166.553192139 1.4084507 2.0 0.10000002
1041 164.320343018 33.80282 0.6666667 4.2889192e-07
1042 164.320343018 33.09859 2.0 4.1995665e-07
1049 164.320343018 31.690142 1.3333334 4.0208616e-07
1048 164.320343018 31.690142 2.0 4.0208616e-07
537 164.320343018 19.014084 0.0 0.10000024
538 164.320343018 19.014084 -0.6666667 0.10000024
545 164.320343018 16.197184 0.0 0.10000021
544 164.320343018 16.90141 -0.6666667 0.10000022
1268 164.320358276 38.732395 1.3333334 0.10000049
1269 164.320358276 38.732395 0.6666667 0.10000049
1276 164.320358276 42.957745 2.0 0.20000055
1275 164.320358276 37.323944 0.6666667 0.10000047
764 164.320358276 30.28169 -1.3333334 3.8421567e-07
765 164.320358276 30.28169 -2.0 3.8421567e-07
772 164.320358276 27.464788 -1.3333334 3.4847466e-07
771 164.320358276 28.169014 -2.0 3.574099e-07
1044 166.413818359 33.09859 0.6666667 4.1995665e-07
1045 166.413818359 32.394367 2.0 4.110214e-07
1052 166.413818359 30.985916 1.3333334 3.931509e-07
1051 166.413818359 30.985916 2.0 3.931509e-07
540 166.413818359 18.309858 -0.6666667 0.10000023
541 166.413818359 17.605635 0.0 0.100000225
548 166.413818359 15.492958 -0.6666667 0.100000195
547 166.413818359 15.492958 0.0 0.100000195
765 166.413650513 30.28169 -2.0 3.8421567e-07
766 166.413650513 29.577465 -1.3333334 3.7528042e-07
773 166.413650513 27.464788 -2.0 3.4847466e-07
772 166.413650513 27.464788 -1.3333334 3.4847466e-07
261 166.413650513 2.8169014 2.0 0.10000004
262 166.413650513 2.8169014 1.3333334 0.10000004
269 166.413650513 1.4084507 0.6666667 0.10000002
268 166.413650513 1.4084507 1.3333334 0.10000002
547 164.24911499 15.492958 0.0 0.100000195
548 164.24911499 15.492958 -0.6666667 0.100000195
555 164.24911499 12.676056 -0.6666667 0.100000165
554 164.24911499 13.380281 -0.6666667 0.10000017
43 164.24911499 9.859155 -1.3333334 0.10000013
44 164.24911499 9.859155 -2.0 0.10000013
51 164.24911499 7.0422535 -1.3333334 0.10000009
50 164.24911499 7.746479 -2.0 0.1000001
1269 164.249008179 38.732395 0.6666667 0.10000049
1270 164.249008179 38.028168 2.0 0.100000486
1277 164.249008179 42.957745 1.3333334 0.20000055
1276 164.249008179 42.957745 2.0 0.20000055
765 164.249008179 30.28169 -2.0 3.8421567e-07
766 164.249008179 29.577465 -1.3333334 3.7528042e-07
773 164.249008179 27.464788 -2.0 3.4847466e-07
772 164.249008179 27.464788 -1.3333334 3.4847466e-07
1065 166.293167114 34.507042 0.6666667 0.10000044
1066 166.293167114 33.80282 2.0 0.100000426
1073 166.293167114 32.394367 1.3333334 0.10000041
1072 166.293167114 32.394367 2.0 0.10000041
561 166.293167114 23.239437 -0.6666667 0.2000003
562 166.293167114 22.535212 0.0 0.20000029
569 166.293167114 20.422535 -0.6666667 0.20000026
568 166.293167114 20.422535 0.0 0.20000026
1263 166.293258667 40.140846 0.6666667 0.10000051
1264 166.293258667 39.43662 2.0 0.1000005
1271 166.293258667 38.028168 1.3333334 0.100000486
1270 166.293258667 38.028168 2.0 0.100000486
759 166.293258667 32.394367 -2.0 4.110214e-07
760 166.293258667 31.690142 -1.3333334 4.0208616e-07
767 166.293258667 29.577465 -2.0 3.7528042e-07
766 166.293258667 29.577465 -1.3333334 3.7528042e-07
568 164.227783203 20.422535 0.0 0.20000026
569 164.227783203 20.422535 -0.6666667 0.20000026
576 164.227783203 17.605635 0.0 0.20000023
575 164.227783203 18.309858 -0.6666667 0.20000024
64 164.227783203 2.8169014 -2.0 0.10000004
65 164.227783203 2.1126761 -1.3333334 0.10000003
72 164.227783203 -1.2688052e-09 -2.0 0.1
71 164.227783203 -1.2688052e-09 -1.3333334 0.1
820 164.227798462 35.915493 -1.3333334 0.20000046
821 164.227798462 35.915493 -2.0 0.20000046
828 164.227798462 33.09859 -1.3333334 0.20000042
827 164.227798462 33.80282 -2.0 0.20000044
316 164.227798462 9.859155 1.3333334 1.2509346e-07
317 164.227798462 9.859155 0.6666667 1.2509346e-07
324 164.227798462 7.746479 2.0 9.828773e-08
323 164.227798462 8.450705 0.6666667 1.0722298e-07
1046 166.08543396 32.394367 1.3333334 4.110214e-07
1047 166.08543396 32.394367 0.6666667 4.110214e-07
1054 166.08543396 36.619717 2.0 0.10000046
1053 166.08543396 30.985916 0.6666667 3.931509e-07
542 166.08543396 17.605635 -0.6666667 0.100000225
543 166.08543396 16.90141 0.0 0.10000022
550 166.08543396 14.788733 -0.6666667 0.10000019
549 166.08543396 14.788733 0.0 0.10000019
1326 166.085342407 44.366196 0.6666667 5.629206e-07
1327 166.085342407 44.366196 0.0 5.629206e-07
1334 166.085342407 43.661972 0.0 5.539854e-07
1333 166.085342407 43.661972 0.6666667 5.539854e-07
822 166.085342407 35.21127 -1.3333334 0.20000045
823 166.085342407 35.21127 -2.0 0.20000045
830 166.085342407 32.394367 -1.3333334 0.20000042
829 166.085342407 33.09859 -2.0 0.20000042
543 164.126037598 16.90141 0.0 0.10000022
544 164.126037598 16.90141 -0.6666667 0.10000022
551 164.126037598 14.084507 0.0 0.10000018
550 164.126037598 14.788733 -0.6666667 0.10000019
39 164.126037598 11.267606 -1.3333334 0.10000014
40 164.126037598 11.267606 -2.0 0.10000014
47 164.126037598 8.450705 -1.3333334 0.100000106
46 164.126037598 9.154929 -2.0 0.10000012
827 164.125961304 33.80282 -2.0 0.20000044
828 164.125961304 33.09859 -1.3333334 0.20000042
835 164.125961304 30.985916 -2.0 0.20000039
834 164.125961304 30.985916 -1.3333334 0.20000039
323 164.125961304 8.450705 0.6666667 1.0722298e-07
324 164.125961304 7.746479 2.0 9.828773e-08
331 164.125961304 12.676056 0.6666667 0.100000165
330 164.125961304 6.338028 0.6666667 8.041723e-08
1049 165.758132935 31.690142 1.3333334 4.0208616e-07
1050 165.758132935 31.690142 0.6666667 4.0208616e-07
1057 165.758132935 35.915493 2.0 0.100000456
1056 165.758132935 36.619717 0.6666667 0.10000046
545 165.758132935 16.197184 0.0 0.10000021
546 165.758132935 16.197184 -0.6666667 0.10000021
553 165.758132935 13.380281 0.0 0.10000017
552 165.758132935 14.084507 -0.6666667 0.10000018
1333 165.758178711 43.661972 0.6666667 5.539854e-07
1334 165.758178711 43.661972 0.0 5.539854e-07
1341 165.758178711 47.183098 0.0 0.1000006
1340 165.758178711 47.183098 0.6666667 0.1000006
829 165.758178711 33.09859 -2.0 0.20000042
830 165.758178711 32.394367 -1.3333334 0.20000042
837 165.758178711 30.28169 -2.0 0.20000039
836 165.758178711 30.28169 -1.3333334 0.20000039
834 163.876525879 30.985916 -1.3333334 0.20000039
835 163.876525879 30.985916 -2.0 0.20000039
842 163.876525879 28.169014 -1.3333334 0.20000036
841 163.876525879 28.87324 -2.0 0.20000038
330 163.876525879 6.338028 0.6666667 8.041723e-08
331 163.876525879 12.676056 0.6666667 0.100000165
338 163.876525879 11.267606 0.6666667 0.10000014
337 163.876525879 11.267606 1.3333334 0.10000014
1066 165.335754395 33.80282 2.0 0.100000426
1067 165.335754395 33.80282 1.3333334 0.100000426
1074 165.335754395 32.394367 0.6666667 0.10000041
1073 165.335754395 32.394367 1.3333334 0.10000041
562 165.335754395 22.535212 0.0 0.20000029
563 165.335754395 22.535212 -0.6666667 0.20000029
570 165.335754395 19.71831 0.0 0.20000026
569 165.335754395 20.422535 -0.6666667 0.20000026
1340 165.335662842 47.183098 0.6666667 0.1000006
1341 165.335662842 47.183098 0.0 0.1000006
1348 165.335662842 46.478874 -2.0 0.10000059
1347 165.335662842 46.478874 -1.3333334 0.10000059
836 165.335662842 30.28169 -1.3333334 0.20000039
837 165.335662842 30.28169 -2.0 0.20000039
844 165.335662842 27.464788 -0.6666667 0.20000035
843 165.335662842 28.169014 -2.0 0.20000036
569 163.492706299 20.422535 -0.6666667 0.20000026
570 163.492706299 19.71831 0.0 0.20000026
577 163.492706299 17.605635 -0.6666667 0.20000023
576 163.492706299 17.605635 0.0 0.20000023
65 163.492706299 2.1126761 -1.3333334 0.10000003
66 163.492706299 2.1126761 -2.0 0.10000003
73 163.492706299 11.971831 -1.3333334 0.20000015
72 163.492706299 -1.2688052e-09 -2.0 0.1
1054 164.792526245 36.619717 2.0 0.10000046
1055 164.792526245 36.619717 1.3333334 0.10000046
1062 164.792526245 35.21127 0.6666667 0.10000045
1061 164.792526245 35.21127 1.3333334 0.10000045
550 164.792526245 14.788733 -0.6666667 0.10000019
551 164.792526245 14.084507 0.0 0.10000018
558 164.792526245 23.943663 0.0 0.2000003
557 164.792526245 24.647888 -0.6666667 0.20000032
1347 164.792541504 46.478874 -1.3333334 0.10000059
1348 164.792541504 46.478874 -2.0 0.10000059
1355 164.792541504 45.774647 -2.0 0.10000058
1354 164.792541504 45.774647 -1.3333334 0.10000058
843 164.792541504 28.169014 -2.0 0.20000036
844 164.792541504 27.464788 -0.6666667 0.20000035
851 164.792541504 26.056337 -2.0 0.20000033
850 164.792541504 26.056337 -1.3333334 0.20000033
848 163.015289307 26.760563 -1.3333334 0.20000035
849 163.015289307 26.760563 -2.0 0.20000035
856 163.015289307 35.915493 0.0 4.5569763e-07
855 163.015289307 36.619717 -0.6666667 4.6463285e-07
344 163.015289307 9.859155 0.6666667 0.10000013
345 163.015289307 9.154929 2.0 0.10000012
352 163.015289307 7.746479 1.3333334 0.1000001
351 163.015289307 7.746479 2.0 0.1000001
1060 164.249511719 35.21127 2.0 0.10000045
1061 164.249511719 35.21127 1.3333334 0.10000045
1068 164.249511719 33.80282 0.6666667 0.100000426
1067 164.249511719 33.80282 1.3333334 0.100000426
556 164.249511719 24.647888 0.0 0.20000032
557 164.249511719 24.647888 -0.6666667 0.20000032
564 164.249511719 21.830986 0.0 0.20000029
563 164.249511719 22.535212 -0.6666667 0.20000029
851 164.249450684 26.056337 -2.0 0.20000033
852 164.249450684 25.352112 -1.3333334 0.20000033
859 164.249450684 35.21127 -0.6666667 4.467624e-07
858 164.249450684 35.21127 0.0 4.467624e-07
347 164.249450684 9.154929 0.6666667 0.10000012
348 164.249450684 8.450705 2.0 0.100000106
355 164.249450684 7.0422535 1.3333334 0.10000009
354 164.249450684 7.0422535 2.0 0.10000009
563 162.484527588 22.535212 -0.6666667 0.20000029
564 162.484527588 21.830986 0.0 0.20000029
571 162.484527588 19.71831 -0.6666667 0.20000026
570 162.484527588 19.71831 0.0 0.20000026
59 162.484527588 4.2253523 -1.3333334 0.10000005
60 162.484527588 4.2253523 -2.0 0.10000005
67 162.484527588 1.4084507 -1.3333334 0.10000002
66 162.484527588 2.1126761 -2.0 0.10000003
1354 162.484481812 45.774647 -1.3333334 0.10000058
1355 162.484481812 45.774647 -2.0 0.10000058
1362 162.484481812 45.070423 -2.0 0.100000575
1361 162.484481812 45.070423 -1.3333334 0.100000575
850 162.484481812 26.056337 -1.3333334 0.20000033
851 162.484481812 26.056337 -2.0 0.20000033
858 162.484481812 35.21127 0.0 4.467624e-07
857 162.484481812 35.915493 -0.6666667 4.5569763e-07
531 161.778137207 21.12676 0.0 0.10000027
532 161.778137207 21.12676 -0.6666667 0.10000027
539 161.778137207 18.309858 0.0 0.10000023
538 161.778137207 19.014084 -0.6666667 0.10000024
27 161.778137207 2.8169014 -1.3333334 3.5740992e-08
28 161.778137207 2.8169014 -2.0 3.5740992e-08
35 161.778137207 0.0 -1.3333334 0.0
34 161.778137207 0.70422536 -2.0 8.935248e-09
1028 162.047958374 25.352112 0.6666667 0.20000033
1029 162.047958374 24.647888 2.0 0.20000032
1036 162.047958374 34.507042 2.0 4.3782714e-07
1035 162.047958374 35.21127 0.6666667 4.467624e-07
524 162.047958374 23.943663 -0.6666667 0.10000031
525 162.047958374 23.239437 0.0 0.1000003
532 162.047958374 21.12676 -0.6666667 0.10000027
531 162.047958374 21.12676 0.0 0.10000027
1283 164.438858032 41.549297 1.3333334 0.20000052
1284 164.438858032 41.549297 0.6666667 0.20000052
1291 164.438858032 39.43662 2.0 0.20000051
1290 164.438858032 40.140846 0.6666667 0.20000051
779 164.438858032 25.352112 -2.0 3.2166892e-07
780 164.438858032 24.647888 -1.3333334 3.1273368e-07
787 164.438858032 35.21127 -2.0 0.10000045
786 164.438858032 35.21127 -1.3333334 0.10000045
1291 162.047805786 39.43662 2.0 0.20000051
1292 162.047805786 39.43662 1.3333334 0.20000051
1299 162.047805786 38.028168 0.6666667 0.20000048
1298 162.047805786 38.028168 1.3333334 0.20000048
787 162.047805786 35.21127 -2.0 0.10000045
788 162.047805786 34.507042 -1.3333334 0.10000044
795 162.047805786 32.394367 -2.0 0.10000041
794 162.047805786 32.394367 -1.3333334 0.10000041
1034 158.076065063 35.21127 1.3333334 4.467624e-07
1035 158.076065063 35.21127 0.6666667 4.467624e-07
1042 158.076065063 33.09859 2.0 4.1995665e-07
1041 158.076065063 33.80282 0.6666667 4.2889192e-07
530 158.076065063 21.830986 -0.6666667 0.10000028
531 158.076065063 21.12676 0.0 0.10000027
538 158.076065063 19.014084 -0.6666667 0.10000024
537 158.076065063 19.014084 0.0 0.10000024
529 158.321228027 21.830986 0.0 0.10000028
530 158.321228027 21.830986 -0.6666667 0.10000028
537 158.321228027 19.014084 0.0 0.10000024
536 158.321228027 19.71831 -0.6666667 0.100000255
25 158.321228027 3.5211267 -1.3333334 4.4676238e-08
26 158.321228027 3.5211267 -2.0 4.4676238e-08
33 158.321228027 0.70422536 -1.3333334 8.935248e-09
32 158.321228027 1.4084507 -2.0 1.7870496e-08
1292 158.32119751 39.43662 1.3333334 0.20000051
1293 158.32119751 39.43662 0.6666667 0.20000051
1300 158.32119751 37.323944 2.0 0.20000048
1299 158.32119751 38.028168 0.6666667 0.20000048
788 158.32119751 34.507042 -1.3333334 0.10000044
789 158.32119751 34.507042 -2.0 0.10000044
796 158.32119751 31.690142 -1.3333334 0.100000404
795 158.32119751 32.394367 -2.0 0.10000041
535 165.359970093 19.71831 0.0 0.100000255
536 165.359970093 19.71831 -0.6666667 0.100000255
543 165.359970093 16.90141 0.0 0.10000022
542 165.359970093 17.605635 -0.6666667 0.100000225
31 165.359970093 1.4084507 -1.3333334 1.7870496e-08
32 165.359970093 1.4084507 -2.0 1.7870496e-08
39 165.359970093 11.267606 -1.3333334 0.10000014
38 165.359970093 11.971831 -2.0 0.10000015
1032 162.275405884 35.915493 0.6666667 4.5569763e-07
1033 162.275405884 35.21127 2.0 4.467624e-07
1040 162.275405884 33.80282 1.3333334 4.2889192e-07
1039 162.275405884 33.80282 2.0 4.2889192e-07
528 162.275405884 22.535212 -0.6666667 0.100000285
529 162.275405884 21.830986 0.0 0.10000028
536 162.275405884 19.71831 -0.6666667 0.100000255
535 162.275405884 19.71831 0.0 0.100000255
1298 162.27520752 38.028168 1.3333334 0.20000048
1299 162.27520752 38.028168 0.6666667 0.20000048
1306 162.27520752 46.478874 0.0 5.8972637e-07
1305 162.27520752 46.478874 0.6666667 5.8972637e-07
794 162.27520752 32.394367 -1.3333334 0.10000041
795 162.27520752 32.394367 -2.0 0.10000041
802 162.27520752 29.577465 -1.3333334 0.100000374
801 162.27520752 30.28169 -2.0 0.10000039
522 158.219940186 24.647888 -0.6666667 0.100000314
523 158.219940186 23.943663 0.0 0.10000031
530 158.219940186 21.830986 -0.6666667 0.10000028
529 158.219940186 21.830986 0.0 0.10000028
18 158.219940186 6.338028 -2.0 8.041723e-08
19 158.219940186 5.633803 -1.3333334 7.1481985e-08
26 158.219940186 3.5211267 -2.0 4.4676238e-08
25 158.219940186 3.5211267 -1.3333334 4.4676238e-08
785 158.219421387 35.915493 -2.0 0.100000456
786 158.219421387 35.21127 -1.3333334 0.10000045
793 158.219421387 33.09859 -2.0 0.10000042
792 158.219421387 33.09859 -1.3333334 0.10000042
281 158.219421387 5.633803 0.6666667 0.20000008
282 158.219421387 4.9295774 2.0 0.20000006
289 158.219421387 3.5211267 1.3333334 0.20000005
288 158.219421387 3.5211267 2.0 0.20000005
1035 132.946243286 35.21127 0.6666667 4.467624e-07
1036 132.946243286 34.507042 2.0 4.3782714e-07
1043 132.946243286 33.09859 1.3333334 4.1995665e-07
1042 132.946243286 33.09859 2.0 4.1995665e-07
531 132.946243286 21.12676 0.0 0.10000027
532 132.946243286 21.12676 -0.6666667 0.10000027
539 132.946243286 18.309858 0.0 0.10000023
538 132.946243286 19.014084 -0.6666667 0.10000024
1033 134.93421936 35.21127 2.0 4.467624e-07
1034 134.93421936 35.21127 1.3333334 4.467624e-07
1041 134.93421936 33.80282 0.6666667 4.2889192e-07
1040 134.93421936 33.80282 1.3333334 4.2889192e-07
529 134.93421936 21.830986 0.0 0.10000028
530 134.93421936 21.830986 -0.6666667 0.10000028
537 134.93421936 19.014084 0.0 0.10000024
536 134.93421936 19.71831 -0.6666667 0.100000255
778 134.937484741 25.352112 -1.3333334 3.2166892e-07
779 134.937484741 25.352112 -2.0 3.2166892e-07
786 134.937484741 35.21127 -1.3333334 0.10000045
785 134.937484741 35.915493 -2.0 0.100000456
274 134.937484741 -1.2688052e-09 1.3333334 0.1
275 134.937484741 -1.2688052e-09 0.6666667 0.1
282 134.937484741 4.9295774 2.0 0.20000006
281 134.937484741 5.633803 0.6666667 0.20000008
771 132.943054199 28.169014 -2.0 3.574099e-07
772 132.943054199 27.464788 -1.3333334 3.4847466e-07
779 132.943054199 25.352112 -2.0 3.2166892e-07
778 132.943054199 25.352112 -1.3333334 3.2166892e-07
267 132.943054199 1.4084507 2.0 0.10000002
268 132.943054199 1.4084507 1.3333334 0.10000002
275 132.943054199 -1.2688052e-09 0.6666667 0.1
274 132.943054199 -1.2688052e-09 1.3333334 0.1
1026 130.218017578 25.352112 2.0 0.20000033
1027 130.218017578 25.352112 1.3333334 0.20000033
1034 130.218017578 35.21127 1.3333334 4.467624e-07
1033 130.218017578 35.21127 2.0 4.467624e-07
522 130.218017578 24.647888 -0.6666667 0.100000314
523 130.218017578 23.943663 0.0 0.10000031
530 130.218017578 21.830986 -0.6666667 0.10000028
529 130.218017578 21.830986 0.0 0.10000028
1289 130.211700439 40.140846 1.3333334 0.20000051
1290 130.211700439 40.140846 0.6666667 0.20000051
1297 130.211700439 38.028168 2.0 0.20000048
1296 130.211700439 38.732395 0.6666667 0.2000005
785 130.211700439 35.915493 -2.0 0.100000456
786 130.211700439 35.21127 -1.3333334 0.10000045
793 130.211700439 33.09859 -2.0 0.10000042
792 130.211700439 33.09859 -1.3333334 0.10000042
1020 163.469284058 26.760563 2.0 0.20000035
1021 163.469284058 26.760563 1.3333334 0.20000035
1028 163.469284058 25.352112 0.6666667 0.20000033
1027 163.469284058 25.352112 1.3333334 0.20000033
516 163.469284058 14.084507 -0.6666667 1.7870495e-07
517 163.469284058 13.380281 0.0 1.697697e-07
524 163.469284058 23.943663 -0.6666667 0.10000031
523 163.469284058 23.943663 0.0 0.10000031
792 163.468933105 33.09859 -1.3333334 0.10000042
793 163.468933105 33.09859 -2.0 0.10000042
800 163.468933105 30.28169 -1.3333334 0.10000039
799 163.468933105 30.985916 -2.0 0.1000004
288 163.468933105 3.5211267 2.0 0.20000005
289 163.468933105 3.5211267 1.3333334 0.20000005
296 163.468933105 2.1126761 0.6666667 0.20000003
295 163.468933105 2.1126761 1.3333334 0.20000003
1021 159.417205811 26.760563 1.3333334 0.20000035
1022 159.417205811 26.760563 0.6666667 0.20000035
1029 159.417205811 24.647888 2.0 0.20000032
1028 159.417205811 25.352112 0.6666667 0.20000033
517 159.417205811 13.380281 0.0 1.697697e-07
518 159.417205811 13.380281 -0.6666667 1.697697e-07
525 159.417205811 23.239437 0.0 0.1000003
524 159.417205811 23.943663 -0.6666667 0.10000031
1296 159.416656494 38.732395 0.6666667 0.2000005
1297 159.416656494 38.028168 2.0 0.20000048
1304 159.416656494 46.478874 1.3333334 5.8972637e-07
1303 159.416656494 46.478874 2.0 5.8972637e-07
792 159.416656494 33.09859 -1.3333334 0.10000042
793 159.416656494 33.09859 -2.0 0.10000042
800 159.416656494 30.28169 -1.3333334 0.10000039
799 159.416656494 30.985916 -2.0 0.1000004
521 133.127182007 24.647888 0.0 0.100000314
522 133.127182007 24.647888 -0.6666667 0.100000314
529 133.127182007 21.830986 0.0 0.10000028
528 133.127182007 22.535212 -0.6666667 0.100000285
17 133.127182007 6.338028 -1.3333334 8.041723e-08
18 133.127182007 6.338028 -2.0 8.041723e-08
25 133.127182007 3.5211267 -1.3333334 4.4676238e-08
24 133.127182007 4.2253523 -2.0 5.361149e-08
793 133.126159668 33.09859 -2.0 0.10000042
794 133.126159668 32.394367 -1.3333334 0.10000041
801 133.126159668 30.28169 -2.0 0.10000039
800 133.126159668 30.28169 -1.3333334 0.10000039
289 133.126159668 3.5211267 1.3333334 0.20000005
290 133.126159668 3.5211267 0.6666667 0.20000005
297 133.126159668 1.4084507 2.0 0.20000002
296 133.126159668 2.1126761 0.6666667 0.20000003
514 164.356796265 14.788733 -0.6666667 1.876402e-07
515 164.356796265 14.084507 0.0 1.7870495e-07
522 164.356796265 24.647888 -0.6666667 0.100000314
521 164.356796265 24.647888 0.0 0.100000314
10 164.356796265 9.154929 -2.0 1.1615821e-07
11 164.356796265 8.450705 -1.3333334 1.0722298e-07
18 164.356796265 6.338028 -2.0 8.041723e-08
17 164.356796265 6.338028 -1.3333334 8.041723e-08
1312 167.25617981 45.774647 0.6666667 5.807911e-07
1313 167.25617981 45.774647 0.0 5.807911e-07
1320 167.25617981 45.070423 0.0 5.718559e-07
1319 167.25617981 45.070423 0.6666667 5.718559e-07
808 167.25617981 27.464788 -0.6666667 0.10000035
809 167.25617981 27.464788 -1.3333334 0.10000035
816 167.25617981 25.352112 -1.3333334 0.10000032
815 167.25617981 26.056337 -2.0 0.10000033
799 164.356140137 30.985916 -2.0 0.1000004
800 164.356140137 30.28169 -1.3333334 0.10000039
807 164.356140137 28.169014 -2.0 0.10000036
806 164.356140137 28.169014 -1.3333334 0.10000036
295 164.356140137 2.1126761 1.3333334 0.20000003
296 164.356140137 2.1126761 0.6666667 0.20000003
303 164.356140137 -2.5376103e-09 2.0 0.2
302 164.356140137 0.70422536 0.6666667 0.20000002
1018 160.298706055 27.464788 1.3333334 0.20000035
1019 160.298706055 27.464788 0.6666667 0.20000035
1026 160.298706055 25.352112 2.0 0.20000033
1025 160.298706055 26.056337 0.6666667 0.20000033
514 160.298706055 14.788733 -0.6666667 1.876402e-07
515 160.298706055 14.084507 0.0 1.7870495e-07
522 160.298706055 24.647888 -0.6666667 0.100000314
521 160.298706055 24.647888 0.0 0.100000314
1303 160.297592163 46.478874 2.0 5.8972637e-07
1304 160.297592163 46.478874 1.3333334 5.8972637e-07
1311 160.297592163 45.774647 1.3333334 5.807911e-07
1310 160.297592163 45.774647 2.0 5.807911e-07
799 160.297592163 30.985916 -2.0 0.1000004
800 160.297592163 30.28169 -1.3333334 0.10000039
807 160.297592163 28.169014 -2.0 0.10000036
806 160.297592163 28.169014 -1.3333334 0.10000036
515 124.612930298 14.084507 0.0 1.7870495e-07
516 124.612930298 14.084507 -0.6666667 1.7870495e-07
523 124.612930298 23.943663 0.0 0.10000031
522 124.612930298 24.647888 -0.6666667 0.100000314
11 124.612930298 8.450705 -1.3333334 1.0722298e-07
12 124.612930298 8.450705 -2.0 1.0722298e-07
19 124.612930298 5.633803 -1.3333334 7.1481985e-08
18 124.612930298 6.338028 -2.0 8.041723e-08
800 124.588012695 30.28169 -1.3333334 0.10000039
801 124.588012695 30.28169 -2.0 0.10000039
808 124.588012695 27.464788 -0.6666667 0.10000035
807 124.588012695 28.169014 -2.0 0.10000036
296 124.588012695 2.1126761 0.6666667 0.20000003
297 124.588012695 1.4084507 2.0 0.20000002
304 124.588012695 -2.5376103e-09 1.3333334 0.2
303 124.588012695 -2.5376103e-09 2.0 0.2
520 165.710159302 12.676056 -0.6666667 1.6083446e-07
521 165.710159302 24.647888 0.0 0.100000314
528 165.710159302 22.535212 -0.6666667 0.100000285
527 165.710159302 22.535212 0.0 0.100000285
16 165.710159302 7.0422535 -2.0 8.9352476e-08
17 165.710159302 6.338028 -1.3333334 8.041723e-08
24 165.710159302 4.2253523 -2.0 5.361149e-08
23 165.710159302 4.2253523 -1.3333334 5.361149e-08
806 165.708312988 28.169014 -1.3333334 0.10000036
807 165.708312988 28.169014 -2.0 0.10000036
814 165.708312988 26.056337 -1.3333334 0.10000033
813 165.708312988 26.760563 -2.0 0.100000344
302 165.708312988 0.70422536 0.6666667 0.20000002
303 165.708312988 -2.5376103e-09 2.0 0.2
310 165.708312988 11.267606 1.3333334 1.4296397e-07
309 165.708312988 11.267606 2.0 1.4296397e-07
1024 161.422348022 26.056337 1.3333334 0.20000033
1025 161.422348022 26.056337 0.6666667 0.20000033
1032 161.422348022 35.915493 0.6666667 4.5569763e-07
1031 161.422348022 35.915493 1.3333334 4.5569763e-07
520 161.422348022 12.676056 -0.6666667 1.6083446e-07
521 161.422348022 24.647888 0.0 0.100000314
528 161.422348022 22.535212 -0.6666667 0.100000285
527 161.422348022 22.535212 0.0 0.100000285
1310 161.41973877 45.774647 2.0 5.807911e-07
1311 161.41973877 45.774647 1.3333334 5.807911e-07
1318 161.41973877 45.070423 1.3333334 5.718559e-07
1317 161.41973877 45.070423 2.0 5.718559e-07
806 161.41973877 28.169014 -1.3333334 0.10000036
807 161.41973877 28.169014 -2.0 0.10000036
814 161.41973877 26.056337 -1.3333334 0.10000033
813 161.41973877 26.760563 -2.0 0.100000344
527 123.890800476 22.535212 0.0 0.100000285
528 123.890800476 22.535212 -0.6666667 0.100000285
535 123.890800476 19.71831 0.0 0.100000255
534 123.890800476 20.422535 -0.6666667 0.10000026
23 123.890800476 4.2253523 -1.3333334 5.361149e-08
24 123.890800476 4.2253523 -2.0 5.361149e-08
31 123.890800476 1.4084507 -1.3333334 1.7870496e-08
30 123.890800476 2.1126761 -2.0 2.6805743e-08
807 123.845161438 28.169014 -2.0 0.10000036
808 123.845161438 27.464788 -0.6666667 0.10000035
815 123.845161438 26.056337 -2.0 0.10000033
814 123.845161438 26.056337 -1.3333334 0.10000033
303 123.845161438 -2.5376103e-09 2.0 0.2
304 123.845161438 -2.5376103e-09 1.3333334 0.2
311 123.845161438 11.267606 0.6666667 1.4296397e-07
310 123.845161438 11.267606 1.3333334 1.4296397e-07
509 163.952636719 16.90141 -0.6666667 2.1444595e-07
510 163.952636719 16.197184 0.0 2.055107e-07
517 163.952636719 13.380281 0.0 1.697697e-07
516 163.952636719 14.084507 -0.6666667 1.7870495e-07
5 163.952636719 10.56338 -1.3333334 1.3402871e-07
6 163.952636719 10.56338 -2.0 1.3402871e-07
13 163.952636719 7.746479 -1.3333334 9.828773e-08
12 163.952636719 8.450705 -2.0 1.0722298e-07
1317 163.948028564 45.070423 2.0 5.718559e-07
1318 163.948028564 45.070423 1.3333334 5.718559e-07
1325 163.948028564 44.366196 1.3333334 5.629206e-07
1324 163.948028564 44.366196 2.0 5.629206e-07
813 163.948028564 26.760563 -2.0 0.100000344
814 163.948028564 26.056337 -1.3333334 0.10000033
821 163.948028564 35.915493 -2.0 0.20000046
820 163.948028564 35.915493 -1.3333334 0.20000046
510 159.154342651 16.197184 0.0 2.055107e-07
511 159.154342651 16.197184 -0.6666667 2.055107e-07
518 159.154342651 13.380281 -0.6666667 1.697697e-07
517 159.154342651 13.380281 0.0 1.697697e-07
6 159.154342651 10.56338 -2.0 1.3402871e-07
7 159.154342651 9.859155 -1.3333334 1.2509346e-07
14 159.154342651 7.746479 -2.0 9.828773e-08
13 159.154342651 7.746479 -1.3333334 9.828773e-08
814 159.143814087 26.056337 -1.3333334 0.10000033
815 159.143814087 26.056337 -2.0 0.10000033
822 159.143814087 35.21127 -1.3333334 0.20000045
821 159.143814087 35.915493 -2.0 0.20000046
310 159.143814087 11.267606 1.3333334 1.4296397e-07
311 159.143814087 11.267606 0.6666667 1.4296397e-07
318 159.143814087 9.154929 2.0 1.1615821e-07
317 159.143814087 9.859155 0.6666667 1.2509346e-07
1013 108.198280334 28.87324 0.6666667 0.20000038
1014 108.198280334 28.169014 2.0 0.20000036
1021 108.198280334 26.760563 1.3333334 0.20000035
1020 108.198280334 26.760563 2.0 0.20000035
509 108.198280334 16.90141 -0.6666667 2.1444595e-07
510 108.198280334 16.197184 0.0 2.055107e-07
517 108.198280334 13.380281 0.0 1.697697e-07
516 108.198280334 14.084507 -0.6666667 1.7870495e-07
1318 108.045501709 45.070423 1.3333334 5.718559e-07
1319 108.045501709 45.070423 0.6666667 5.718559e-07
1326 108.045501709 44.366196 0.6666667 5.629206e-07
1325 108.045501709 44.366196 1.3333334 5.629206e-07
814 108.045501709 26.056337 -1.3333334 0.10000033
815 108.045501709 26.056337 -2.0 0.10000033
822 108.045501709 35.21127 -1.3333334 0.20000045
821 108.045501709 35.915493 -2.0 0.20000046
506 160.165115356 17.605635 0.0 2.233812e-07
507 160.165115356 17.605635 -0.6666667 2.233812e-07
514 160.165115356 14.788733 -0.6666667 1.876402e-07
513 160.165115356 15.492958 -0.6666667 1.9657546e-07
2 160.165115356 11.971831 -2.0 1.5189921e-07
3 160.165115356 11.267606 -1.3333334 1.4296397e-07
10 160.165115356 9.154929 -2.0 1.1615821e-07
9 160.165115356 9.154929 -1.3333334 1.1615821e-07
748 160.16696167 35.915493 -1.3333334 4.5569763e-07
749 160.16696167 35.915493 -2.0 4.5569763e-07
756 160.16696167 33.09859 -1.3333334 4.1995665e-07
755 160.16696167 33.80282 -2.0 4.2889192e-07
244 160.16696167 0.0 1.3333334 0.0
245 160.16696167 0.0 0.6666667 0.0
252 160.16696167 4.9295774 2.0 0.10000006
251 160.16696167 5.633803 0.6666667 0.100000076
1010 155.971420288 29.577465 0.6666667 0.20000038
1011 155.971420288 28.87324 2.0 0.20000038
1018 155.971420288 27.464788 1.3333334 0.20000035
1017 155.971420288 27.464788 2.0 0.20000035
506 155.971420288 17.605635 0.0 2.233812e-07
507 155.971420288 17.605635 -0.6666667 2.233812e-07
514 155.971420288 14.788733 -0.6666667 1.876402e-07
513 155.971420288 15.492958 -0.6666667 1.9657546e-07
1252 155.97177124 42.25352 2.0 0.10000054
1253 155.97177124 42.25352 1.3333334 0.10000054
1260 155.97177124 40.84507 0.6666667 0.100000516
1259 155.97177124 40.84507 1.3333334 0.100000516
748 155.97177124 35.915493 -1.3333334 4.5569763e-07
749 155.97177124 35.915493 -2.0 4.5569763e-07
756 155.97177124 33.09859 -1.3333334 4.1995665e-07
755 155.97177124 33.80282 -2.0 4.2889192e-07
507 117.761375427 17.605635 -0.6666667 2.233812e-07
508 117.761375427 16.90141 0.0 2.1444595e-07
515 117.761375427 14.084507 0.0 1.7870495e-07
514 117.761375427 14.788733 -0.6666667 1.876402e-07
3 117.761375427 11.267606 -1.3333334 1.4296397e-07
4 117.761375427 11.267606 -2.0 1.4296397e-07
11 117.761375427 8.450705 -1.3333334 1.0722298e-07
10 117.761375427 9.154929 -2.0 1.1615821e-07
755 117.712844849 33.80282 -2.0 4.2889192e-07
756 117.712844849 33.09859 -1.3333334 4.1995665e-07
763 117.712844849 30.985916 -2.0 3.931509e-07
762 117.712844849 30.985916 -1.3333334 3.931509e-07
251 117.712844849 5.633803 0.6666667 0.100000076
252 117.712844849 4.9295774 2.0 0.10000006
259 117.712844849 3.5211267 1.3333334 0.100000046
258 117.712844849 3.5211267 2.0 0.100000046
1016 137.078384399 28.169014 0.6666667 0.20000036
1017 137.078384399 27.464788 2.0 0.20000035
1024 137.078384399 26.056337 1.3333334 0.20000033
1023 137.078384399 26.056337 2.0 0.20000033
512 137.078384399 15.492958 0.0 1.9657546e-07
513 137.078384399 15.492958 -0.6666667 1.9657546e-07
520 137.078384399 12.676056 -0.6666667 1.6083446e-07
519 137.078384399 12.676056 0.0 1.6083446e-07
1231 137.229568481 40.140846 2.0 5.0930913e-07
1232 137.229568481 40.140846 1.3333334 5.0930913e-07
1239 137.229568481 38.732395 0.6666667 4.9143864e-07
1238 137.229568481 38.732395 1.3333334 4.9143864e-07
727 137.229568481 23.239437 2.0 0.2000003
728 137.229568481 23.239437 1.3333334 0.2000003
735 137.229568481 21.830986 0.6666667 0.20000029
734 137.229568481 21.830986 1.3333334 0.20000029
519 125.675880432 12.676056 0.0 1.6083446e-07
520 125.675880432 12.676056 -0.6666667 1.6083446e-07
527 125.675880432 22.535212 0.0 0.100000285
526 125.675880432 23.239437 -0.6666667 0.1000003
15 125.675880432 7.0422535 -1.3333334 8.9352476e-08
16 125.675880432 7.0422535 -2.0 8.9352476e-08
23 125.675880432 4.2253523 -1.3333334 5.361149e-08
22 125.675880432 4.9295774 -2.0 6.254673e-08
734 125.849342346 21.830986 1.3333334 0.20000029
735 125.849342346 21.830986 0.6666667 0.20000029
742 125.849342346 19.71831 2.0 0.20000026
741 125.849342346 20.422535 0.6666667 0.20000026
230 125.849342346 3.5211267 0.6666667 4.4676238e-08
231 125.849342346 2.8169014 2.0 3.5740992e-08
238 125.849342346 1.4084507 1.3333334 1.7870496e-08
237 125.849342346 1.4084507 2.0 1.7870496e-08
1023 124.219161987 26.056337 2.0 0.20000033
1024 124.219161987 26.056337 1.3333334 0.20000033
1031 124.219161987 35.915493 1.3333334 4.5569763e-07
1030 124.219161987 35.915493 2.0 4.5569763e-07
519 124.219161987 12.676056 0.0 1.6083446e-07
520 124.219161987 12.676056 -0.6666667 1.6083446e-07
527 124.219161987 22.535212 0.0 0.100000285
526 124.219161987 23.239437 -0.6666667 0.1000003
1238 124.436439514 38.732395 1.3333334 4.9143864e-07
1239 124.436439514 38.732395 0.6666667 4.9143864e-07
1246 124.436439514 36.619717 2.0 4.6463285e-07
1245 124.436439514 37.323944 0.6666667 4.7356812e-07
734 124.436439514 21.830986 1.3333334 0.20000029
735 124.436439514 21.830986 0.6666667 0.20000029
742 124.436439514 19.71831 2.0 0.20000026
741 124.436439514 20.422535 0.6666667 0.20000026
559 160.262878418 23.943663 -0.6666667 0.2000003
560 160.262878418 23.239437 0.0 0.2000003
567 160.262878418 21.12676 -0.6666667 0.20000027
566 160.262878418 21.12676 0.0 0.20000027
55 160.262878418 5.633803 -1.3333334 0.100000076
56 160.262878418 5.633803 -2.0 0.100000076
63 160.262878418 2.8169014 -1.3333334 0.10000004
62 160.262878418 3.5211267 -2.0 0.100000046
1067 160.477935791 33.80282 1.3333334 0.100000426
1068 160.477935791 33.80282 0.6666667 0.100000426
1075 160.477935791 31.690142 2.0 0.100000404
1074 160.477935791 32.394367 0.6666667 0.10000041
563 160.477935791 22.535212 -0.6666667 0.20000029
564 160.477935791 21.830986 0.0 0.20000029
571 160.477935791 19.71831 -0.6666667 0.20000026
570 160.477935791 19.71831 0.0 0.20000026
551 163.015289307 14.084507 0.0 0.10000018
552 163.015289307 14.084507 -0.6666667 0.10000018
559 163.015289307 23.943663 -0.6666667 0.2000003
558 163.015289307 23.943663 0.0 0.2000003
47 163.015289307 8.450705 -1.3333334 0.100000106
48 163.015289307 8.450705 -2.0 0.100000106
55 163.015289307 5.633803 -1.3333334 0.100000076
54 163.015289307 6.338028 -2.0 0.10000008
552 160.816955566 14.084507 -0.6666667 0.10000018
553 160.816955566 13.380281 0.0 0.10000017
560 160.816955566 23.239437 0.0 0.2000003
559 160.816955566 23.943663 -0.6666667 0.2000003
48 160.816955566 8.450705 -2.0 0.100000106
49 160.816955566 7.746479 -1.3333334 0.1000001
56 160.816955566 5.633803 -2.0 0.100000076
55 160.816955566 5.633803 -1.3333334 0.100000076
855 160.477920532 36.619717 -0.6666667 4.6463285e-07
856 160.477920532 35.915493 0.0 4.5569763e-07
863 160.477920532 33.80282 -0.6666667 4.2889192e-07
862 160.477920532 33.80282 0.0 4.2889192e-07
351 160.477920532 7.746479 2.0 0.1000001
352 160.477920532 7.746479 1.3333334 0.1000001
359 160.477920532 11.971831 2.0 0.20000015
358 160.477920532 12.676056 0.0 0.20000017
1352 160.816955566 45.774647 0.0 0.10000058
1353 160.816955566 45.774647 -0.6666667 0.10000058
1360 160.816955566 45.070423 -0.6666667 0.100000575
1359 160.816955566 45.070423 0.0 0.100000575
848 160.816955566 26.760563 -1.3333334 0.20000035
849 160.816955566 26.760563 -2.0 0.20000035
856 160.816955566 35.915493 0.0 4.5569763e-07
855 160.816955566 36.619717 -0.6666667 4.6463285e-07
570 157.519989014 19.71831 0.0 0.20000026
571 157.519989014 19.71831 -0.6666667 0.20000026
578 157.519989014 16.90141 0.0 0.20000021
577 157.519989014 17.605635 -0.6666667 0.20000023
66 157.519989014 2.1126761 -2.0 0.10000003
67 157.519989014 1.4084507 -1.3333334 0.10000002
74 157.519989014 11.971831 -2.0 0.20000015
73 157.519989014 11.971831 -1.3333334 0.20000015
1359 157.519943237 45.070423 0.0 0.100000575
1360 157.519943237 45.070423 -0.6666667 0.100000575
1367 157.519943237 44.366196 -0.6666667 0.10000056
1366 157.519943237 44.366196 0.0 0.10000056
855 157.519943237 36.619717 -0.6666667 4.6463285e-07
856 157.519943237 35.915493 0.0 4.5569763e-07
863 157.519943237 33.80282 -0.6666667 4.2889192e-07
862 157.519943237 33.80282 0.0 4.2889192e-07
1055 157.69519043 36.619717 1.3333334 0.10000046
1056 157.69519043 36.619717 0.6666667 0.10000046
1063 157.69519043 34.507042 2.0 0.10000044
1062 157.69519043 35.21127 0.6666667 0.10000045
551 157.69519043 14.084507 0.0 0.10000018
552 157.69519043 14.084507 -0.6666667 0.10000018
559 157.69519043 23.943663 -0.6666667 0.2000003
558 157.69519043 23.943663 0.0 0.2000003
849 157.695266724 26.760563 -2.0 0.20000035
850 157.695266724 26.056337 -1.3333334 0.20000033
857 157.695266724 35.915493 -0.6666667 4.5569763e-07
856 157.695266724 35.915493 0.0 4.5569763e-07
345 157.695266724 9.154929 2.0 0.10000012
346 157.695266724 9.154929 1.3333334 0.10000012
353 157.695266724 7.746479 0.6666667 0.1000001
352 157.695266724 7.746479 1.3333334 0.1000001
1073 161.265716553 32.394367 1.3333334 0.10000041
1074 161.265716553 32.394367 0.6666667 0.10000041
1081 161.265716553 36.619717 2.0 0.20000046
1080 161.265716553 30.985916 0.6666667 0.1000004
569 161.265716553 20.422535 -0.6666667 0.20000026
570 161.265716553 19.71831 0.0 0.20000026
577 161.265716553 17.605635 -0.6666667 0.20000023
576 161.265716553 17.605635 0.0 0.20000023
841 163.492645264 28.87324 -2.0 0.20000038
842 163.492645264 28.169014 -1.3333334 0.20000036
849 163.492645264 26.760563 -2.0 0.20000035
848 163.492645264 26.760563 -1.3333334 0.20000035
337 163.492645264 11.267606 1.3333334 0.10000014
338 163.492645264 11.267606 0.6666667 0.10000014
345 163.492645264 9.154929 2.0 0.10000012
344 163.492645264 9.859155 0.6666667 0.10000013
1345 161.265701294 46.478874 0.0 0.10000059
1346 161.265701294 46.478874 -0.6666667 0.10000059
1353 161.265701294 45.774647 -0.6666667 0.10000058
1352 161.265701294 45.774647 0.0 0.10000058
841 161.265701294 28.87324 -2.0 0.20000038
842 161.265701294 28.169014 -1.3333334 0.20000036
849 161.265701294 26.760563 -2.0 0.20000035
848 161.265701294 26.760563 -1.3333334 0.20000035
549 158.096588135 14.788733 0.0 0.10000019
550 158.096588135 14.788733 -0.6666667 0.10000019
557 158.096588135 24.647888 -0.6666667 0.20000032
556 158.096588135 24.647888 0.0 0.20000032
45 158.096588135 9.154929 -1.3333334 0.10000012
46 158.096588135 9.154929 -2.0 0.10000012
53 158.096588135 6.338028 -1.3333334 0.10000008
52 158.096588135 7.0422535 -2.0 0.10000009
842 158.096542358 28.169014 -1.3333334 0.20000036
843 158.096542358 28.169014 -2.0 0.20000036
850 158.096542358 26.056337 -1.3333334 0.20000033
849 158.096542358 26.760563 -2.0 0.20000035
338 158.096542358 11.267606 0.6666667 0.10000014
339 158.096542358 10.56338 2.0 0.100000136
346 158.096542358 9.154929 1.3333334 0.10000012
345 158.096542358 9.154929 2.0 0.10000012
1074 145.481033325 32.394367 0.6666667 0.10000041
1075 145.481033325 31.690142 2.0 0.100000404
1082 145.481033325 36.619717 1.3333334 0.20000046
1081 145.481033325 36.619717 2.0 0.20000046
570 145.481033325 19.71831 0.0 0.20000026
571 145.481033325 19.71831 -0.6666667 0.20000026
578 145.481033325 16.90141 0.0 0.20000021
577 145.481033325 17.605635 -0.6666667 0.20000023
856 145.479782104 35.915493 0.0 4.5569763e-07
857 145.479782104 35.915493 -0.6666667 4.5569763e-07
864 145.479782104 33.09859 0.0 4.1995665e-07
863 145.479782104 33.80282 -0.6666667 4.2889192e-07
352 145.479782104 7.746479 1.3333334 0.1000001
353 145.479782104 7.746479 0.6666667 0.1000001
360 145.479782104 11.971831 1.3333334 0.20000015
359 145.479782104 11.971831 2.0 0.20000015
1056 144.210998535 36.619717 0.6666667 0.10000046
1057 144.210998535 35.915493 2.0 0.100000456
1064 144.210998535 34.507042 1.3333334 0.10000044
1063 144.210998535 34.507042 2.0 0.10000044
552 144.210998535 14.084507 -0.6666667 0.10000018
553 144.210998535 13.380281 0.0 0.10000017
560 144.210998535 23.239437 0.0 0.2000003
559 144.210998535 23.943663 -0.6666667 0.2000003
1353 144.212692261 45.774647 -0.6666667 0.10000058
1354 144.212692261 45.774647 -1.3333334 0.10000058
1361 144.212692261 45.070423 -1.3333334 0.100000575
1360 144.212692261 45.070423 -0.6666667 0.100000575
849 144.212692261 26.760563 -2.0 0.20000035
850 144.212692261 26.056337 -1.3333334 0.20000033
857 144.212692261 35.915493 -0.6666667 4.5569763e-07
856 144.212692261 35.915493 0.0 4.5569763e-07
1053 142.537368774 30.985916 0.6666667 3.931509e-07
1054 142.537368774 36.619717 2.0 0.10000046
1061 142.537368774 35.21127 1.3333334 0.10000045
1060 142.537368774 35.21127 2.0 0.10000045
549 142.537368774 14.788733 0.0 0.10000019
550 142.537368774 14.788733 -0.6666667 0.10000019
557 142.537368774 24.647888 -0.6666667 0.20000032
556 142.537368774 24.647888 0.0 0.20000032
1346 142.5365448 46.478874 -0.6666667 0.10000059
1347 142.5365448 46.478874 -1.3333334 0.10000059
1354 142.5365448 45.774647 -1.3333334 0.10000058
1353 142.5365448 45.774647 -0.6666667 0.10000058
842 142.5365448 28.169014 -1.3333334 0.20000036
843 142.5365448 28.169014 -2.0 0.20000036
850 142.5365448 26.056337 -1.3333334 0.20000033
849 142.5365448 26.760563 -2.0 0.20000035
548 163.876541138 15.492958 -0.6666667 0.100000195
549 163.876541138 14.788733 0.0 0.10000019
556 163.876541138 24.647888 0.0 0.20000032
555 163.876541138 12.676056 -0.6666667 0.100000165
44 163.876541138 9.859155 -2.0 0.10000013
45 163.876541138 9.154929 -1.3333334 0.10000012
52 163.876541138 7.0422535 -2.0 0.10000009
51 163.876541138 7.0422535 -1.3333334 0.10000009
1052 161.641815186 30.985916 1.3333334 3.931509e-07
1053 161.641815186 30.985916 0.6666667 3.931509e-07
1060 161.641815186 35.21127 2.0 0.10000045
1059 161.641815186 35.915493 0.6666667 0.100000456
548 161.641815186 15.492958 -0.6666667 0.100000195
549 161.641815186 14.788733 0.0 0.10000019
556 161.641815186 24.647888 0.0 0.20000032
555 161.641815186 12.676056 -0.6666667 0.100000165
1338 161.641815186 47.183098 2.0 0.1000006
1339 161.641815186 47.183098 1.3333334 0.1000006
1346 161.641815186 46.478874 -0.6666667 0.10000059
1345 161.641815186 46.478874 0.0 0.10000059
834 161.641815186 30.985916 -1.3333334 0.20000039
835 161.641815186 30.985916 -2.0 0.20000039
842 161.641815186 28.169014 -1.3333334 0.20000036
841 161.641815186 28.87324 -2.0 0.20000038
555 158.483306885 12.676056 -0.6666667 0.100000165
556 158.483306885 24.647888 0.0 0.20000032
563 158.483306885 22.535212 -0.6666667 0.20000029
562 158.483306885 22.535212 0.0 0.20000029
51 158.483306885 7.0422535 -1.3333334 0.10000009
52 158.483306885 7.0422535 -2.0 0.10000009
59 158.483306885 4.2253523 -1.3333334 0.10000005
58 158.483306885 4.9295774 -2.0 0.10000006
835 158.483413696 30.985916 -2.0 0.20000039
836 158.483413696 30.28169 -1.3333334 0.20000039
843 158.483413696 28.169014 -2.0 0.20000036
842 158.483413696 28.169014 -1.3333334 0.20000036
331 158.483413696 12.676056 0.6666667 0.100000165
332 158.483413696 12.676056 0.0 0.100000165
339 158.483413696 10.56338 2.0 0.100000136
338 158.483413696 11.267606 0.6666667 0.10000014
1059 141.958145142 35.915493 0.6666667 0.100000456
1060 141.958145142 35.21127 2.0 0.10000045
1067 141.958145142 33.80282 1.3333334 0.100000426
1066 141.958145142 33.80282 2.0 0.100000426
555 141.958145142 12.676056 -0.6666667 0.100000165
556 141.958145142 24.647888 0.0 0.20000032
563 141.958145142 22.535212 -0.6666667 0.20000029
562 141.958145142 22.535212 0.0 0.20000029
1339 141.962219238 47.183098 1.3333334 0.1000006
1340 141.962219238 47.183098 0.6666667 0.1000006
1347 141.962219238 46.478874 -1.3333334 0.10000059
1346 141.962219238 46.478874 -0.6666667 0.10000059
835 141.962219238 30.985916 -2.0 0.20000039
836 141.962219238 30.28169 -1.3333334 0.20000039
843 141.962219238 28.169014 -2.0 0.20000036
842 141.962219238 28.169014 -1.3333334 0.20000036
1047 161.783462524 32.394367 0.6666667 4.110214e-07
1048 161.783462524 31.690142 2.0 4.0208616e-07
1055 161.783462524 36.619717 1.3333334 0.10000046
1054 161.783462524 36.619717 2.0 0.10000046
543 161.783462524 16.90141 0.0 0.10000022
544 161.783462524 16.90141 -0.6666667 0.10000022
551 161.783462524 14.084507 0.0 0.10000018
550 161.783462524 14.788733 -0.6666667 0.10000019
1331 161.783447266 43.661972 2.0 5.539854e-07
1332 161.783447266 43.661972 1.3333334 5.539854e-07
1339 161.783447266 47.183098 1.3333334 0.1000006
1338 161.783447266 47.183098 2.0 0.1000006
827 161.783447266 33.80282 -2.0 0.20000044
828 161.783447266 33.09859 -1.3333334 0.20000042
835 161.783447266 30.985916 -2.0 0.20000039
834 161.783447266 30.985916 -1.3333334 0.20000039
544 158.411239624 16.90141 -0.6666667 0.10000022
545 158.411239624 16.197184 0.0 0.10000021
552 158.411239624 14.084507 -0.6666667 0.10000018
551 158.411239624 14.084507 0.0 0.10000018
40 158.411239624 11.267606 -2.0 0.10000014
41 158.411239624 10.56338 -1.3333334 0.100000136
48 158.411239624 8.450705 -2.0 0.100000106
47 158.411239624 8.450705 -1.3333334 0.100000106
828 158.411224365 33.09859 -1.3333334 0.20000042
829 158.411224365 33.09859 -2.0 0.20000042
836 158.411224365 30.28169 -1.3333334 0.20000039
835 158.411224365 30.985916 -2.0 0.20000039
324 158.411224365 7.746479 2.0 9.828773e-08
325 158.411224365 7.746479 1.3333334 9.828773e-08
332 158.411224365 12.676056 0.0 0.100000165
331 158.411224365 12.676056 0.6666667 0.100000165
545 138.962844849 16.197184 0.0 0.10000021
546 138.962844849 16.197184 -0.6666667 0.10000021
553 138.962844849 13.380281 0.0 0.10000017
552 138.962844849 14.084507 -0.6666667 0.10000018
41 138.962844849 10.56338 -1.3333334 0.100000136
42 138.962844849 10.56338 -2.0 0.100000136
49 138.962844849 7.746479 -1.3333334 0.1000001
48 138.962844849 8.450705 -2.0 0.100000106
1332 138.96383667 43.661972 1.3333334 5.539854e-07
1333 138.96383667 43.661972 0.6666667 5.539854e-07
1340 138.96383667 47.183098 0.6666667 0.1000006
1339 138.96383667 47.183098 1.3333334 0.1000006
828 138.96383667 33.09859 -1.3333334 0.20000042
829 138.96383667 33.09859 -2.0 0.20000042
836 138.96383667 30.28169 -1.3333334 0.20000039
835 138.96383667 30.985916 -2.0 0.20000039
1072 161.782836914 32.394367 2.0 0.10000041
1073 161.782836914 32.394367 1.3333334 0.10000041
1080 161.782836914 30.985916 0.6666667 0.1000004
1079 161.782836914 30.985916 1.3333334 0.1000004
568 161.782836914 20.422535 0.0 0.20000026
569 161.782836914 20.422535 -0.6666667 0.20000026
576 161.782836914 17.605635 0.0 0.20000023
575 161.782836914 18.309858 -0.6666667 0.20000024
1324 161.782806396 44.366196 2.0 5.629206e-07
1325 161.782806396 44.366196 1.3333334 5.629206e-07
1332 161.782806396 43.661972 1.3333334 5.539854e-07
1331 161.782806396 43.661972 2.0 5.539854e-07
820 161.782806396 35.915493 -1.3333334 0.20000046
821 161.782806396 35.915493 -2.0 0.20000046
828 161.782806396 33.09859 -1.3333334 0.20000042
827 161.782806396 33.80282 -2.0 0.20000044
541 158.330688477 17.605635 0.0 0.100000225
542 158.330688477 17.605635 -0.6666667 0.100000225
549 158.330688477 14.788733 0.0 0.10000019
548 158.330688477 15.492958 -0.6666667 0.100000195
37 158.330688477 11.971831 -1.3333334 0.10000015
38 158.330688477 11.971831 -2.0 0.10000015
45 158.330688477 9.154929 -1.3333334 0.10000012
44 158.330688477 9.859155 -2.0 0.10000013
821 158.330810547 35.915493 -2.0 0.20000046
822 158.330810547 35.21127 -1.3333334 0.20000045
829 158.330810547 33.09859 -2.0 0.20000042
828 158.330810547 33.09859 -1.3333334 0.20000042
317 158.330810547 9.859155 0.6666667 1.2509346e-07
318 158.330810547 9.154929 2.0 1.1615821e-07
325 158.330810547 7.746479 1.3333334 9.828773e-08
324 158.330810547 7.746479 2.0 9.828773e-08
1045 138.903518677 32.394367 2.0 4.110214e-07
1046 138.903518677 32.394367 1.3333334 4.110214e-07
1053 138.903518677 30.985916 0.6666667 3.931509e-07
1052 138.903518677 30.985916 1.3333334 3.931509e-07
541 138.903518677 17.605635 0.0 0.100000225
542 138.903518677 17.605635 -0.6666667 0.100000225
549 138.903518677 14.788733 0.0 0.10000019
548 138.903518677 15.492958 -0.6666667 0.100000195
1325 138.911056519 44.366196 1.3333334 5.629206e-07
1326 138.911056519 44.366196 0.6666667 5.629206e-07
1333 138.911056519 43.661972 0.6666667 5.539854e-07
1332 138.911056519 43.661972 1.3333334 5.539854e-07
821 138.911056519 35.915493 -2.0 0.20000046
822 138.911056519 35.21127 -1.3333334 0.20000045
829 138.911056519 33.09859 -2.0 0.20000042
828 138.911056519 33.09859 -1.3333334 0.20000042
1051 161.717697144 30.985916 2.0 3.931509e-07
1052 161.717697144 30.985916 1.3333334 3.931509e-07
1059 161.717697144 35.915493 0.6666667 0.100000456
1058 161.717697144 35.915493 1.3333334 0.100000456
547 161.717697144 15.492958 0.0 0.100000195
548 161.717697144 15.492958 -0.6666667 0.100000195
555 161.717697144 12.676056 -0.6666667 0.100000165
554 161.717697144 13.380281 -0.6666667 0.10000017
1262 161.71762085 40.140846 1.3333334 0.10000051
1263 161.71762085 40.140846 0.6666667 0.10000051
1270 161.71762085 38.028168 2.0 0.100000486
1269 161.71762085 38.732395 0.6666667 0.10000049
758 161.71762085 32.394367 -1.3333334 4.110214e-07
759 161.71762085 32.394367 -2.0 4.110214e-07
766 161.71762085 29.577465 -1.3333334 3.7528042e-07
765 161.71762085 30.28169 -2.0 3.8421567e-07
554 158.156021118 13.380281 -0.6666667 0.10000017
555 158.156021118 12.676056 -0.6666667 0.100000165
562 158.156021118 22.535212 0.0 0.20000029
561 158.156021118 23.239437 -0.6666667 0.2000003
50 158.156021118 7.746479 -2.0 0.1000001
51 158.156021118 7.0422535 -1.3333334 0.10000009
58 158.156021118 4.9295774 -2.0 0.10000006
57 158.156021118 4.9295774 -1.3333334 0.10000006
766 158.155929565 29.577465 -1.3333334 3.7528042e-07
767 158.155929565 29.577465 -2.0 3.7528042e-07
774 158.155929565 26.760563 -1.3333334 3.395394e-07
773 158.155929565 27.464788 -2.0 3.4847466e-07
262 158.155929565 2.8169014 1.3333334 0.10000004
263 158.155929565 2.8169014 0.6666667 0.10000004
270 158.155929565 0.70422536 2.0 0.10000001
269 158.155929565 1.4084507 0.6666667 0.10000002
1058 135.849563599 35.915493 1.3333334 0.100000456
1059 135.849563599 35.915493 0.6666667 0.100000456
1066 135.849563599 33.80282 2.0 0.100000426
1065 135.849563599 34.507042 0.6666667 0.10000044
554 135.849563599 13.380281 -0.6666667 0.10000017
555 135.849563599 12.676056 -0.6666667 0.100000165
562 135.849563599 22.535212 0.0 0.20000029
561 135.849563599 23.239437 -0.6666667 0.2000003
767 135.848815918 29.577465 -2.0 3.7528042e-07
768 135.848815918 28.87324 -1.3333334 3.6634515e-07
775 135.848815918 26.760563 -2.0 3.395394e-07
774 135.848815918 26.760563 -1.3333334 3.395394e-07
263 135.848815918 2.8169014 0.6666667 0.10000004
264 135.848815918 2.1126761 2.0 0.10000003
271 135.848815918 0.70422536 1.3333334 0.10000001
270 135.848815918 0.70422536 2.0 0.10000001
1042 161.799514771 33.09859 2.0 4.1995665e-07
1043 161.799514771 33.09859 1.3333334 4.1995665e-07
1050 161.799514771 31.690142 0.6666667 4.0208616e-07
1049 161.799514771 31.690142 1.3333334 4.0208616e-07
538 161.799514771 19.014084 -0.6666667 0.10000024
539 161.799514771 18.309858 0.0 0.10000023
546 161.799514771 16.197184 -0.6666667 0.10000021
545 161.799514771 16.197184 0.0 0.10000021
772 161.799423218 27.464788 -1.3333334 3.4847466e-07
773 161.799423218 27.464788 -2.0 3.4847466e-07
780 161.799423218 24.647888 -1.3333334 3.1273368e-07
779 161.799423218 25.352112 -2.0 3.2166892e-07
268 161.799423218 1.4084507 1.3333334 0.10000002
269 161.799423218 1.4084507 0.6666667 0.10000002
276 161.799423218 6.338028 2.0 0.20000008
275 161.799423218 -1.2688052e-09 0.6666667 0.1
1037 158.259399414 34.507042 1.3333334 4.3782714e-07
1038 158.259399414 34.507042 0.6666667 4.3782714e-07
1045 158.259399414 32.394367 2.0 4.110214e-07
1044 158.259399414 33.09859 0.6666667 4.1995665e-07
533 158.259399414 20.422535 0.0 0.10000026
534 158.259399414 20.422535 -0.6666667 0.10000026
541 158.259399414 17.605635 0.0 0.100000225
540 158.259399414 18.309858 -0.6666667 0.10000023
1276 158.259475708 42.957745 2.0 0.20000055
1277 158.259475708 42.957745 1.3333334 0.20000055
1284 158.259475708 41.549297 0.6666667 0.20000052
1283 158.259475708 41.549297 1.3333334 0.20000052
772 158.259475708 27.464788 -1.3333334 3.4847466e-07
773 158.259475708 27.464788 -2.0 3.4847466e-07
780 158.259475708 24.647888 -1.3333334 3.1273368e-07
779 158.259475708 25.352112 -2.0 3.2166892e-07
1039 136.708847046 33.80282 2.0 4.2889192e-07
1040 136.708847046 33.80282 1.3333334 4.2889192e-07
1047 136.708847046 32.394367 0.6666667 4.110214e-07
1046 136.708847046 32.394367 1.3333334 4.110214e-07
535 136.708847046 19.71831 0.0 0.100000255
536 136.708847046 19.71831 -0.6666667 0.100000255
543 136.708847046 16.90141 0.0 0.10000022
542 136.708847046 17.605635 -0.6666667 0.100000225
773 136.71194458 27.464788 -2.0 3.4847466e-07
774 136.71194458 26.760563 -1.3333334 3.395394e-07
781 136.71194458 24.647888 -2.0 3.1273368e-07
780 136.71194458 24.647888 -1.3333334 3.1273368e-07
269 136.71194458 1.4084507 0.6666667 0.10000002
270 136.71194458 0.70422536 2.0 0.10000001
277 136.71194458 6.338028 1.3333334 0.20000008
276 136.71194458 6.338028 2.0 0.20000008
780 161.778045654 24.647888 -1.3333334 3.1273368e-07
781 161.778045654 24.647888 -2.0 3.1273368e-07
788 161.778045654 34.507042 -1.3333334 0.10000044
787 161.778045654 35.21127 -2.0 0.10000045
276 161.778045654 6.338028 2.0 0.20000008
277 161.778045654 6.338028 1.3333334 0.20000008
284 161.778045654 4.9295774 0.6666667 0.20000006
283 161.778045654 4.9295774 1.3333334 0.20000006
1284 158.075836182 41.549297 0.6666667 0.20000052
1285 158.075836182 40.84507 2.0 0.20000052
1292 158.075836182 39.43662 1.3333334 0.20000051
1291 158.075836182 39.43662 2.0 0.20000051
780 158.075836182 24.647888 -1.3333334 3.1273368e-07
781 158.075836182 24.647888 -2.0 3.1273368e-07
788 158.075836182 34.507042 -1.3333334 0.10000044
787 158.075836182 35.21127 -2.0 0.10000045
557 165.282089233 24.647888 -0.6666667 0.20000032
558 165.282089233 23.943663 0.0 0.2000003
565 165.282089233 21.830986 -0.6666667 0.20000029
564 165.282089233 21.830986 0.0 0.20000029
53 165.282089233 6.338028 -1.3333334 0.10000008
54 165.282089233 6.338028 -2.0 0.10000008
61 165.282089233 3.5211267 -1.3333334 0.100000046
60 165.282089233 4.2253523 -2.0 0.10000005
1360 165.28213501 45.070423 -0.6666667 0.100000575
1361 165.28213501 45.070423 -1.3333334 0.100000575
1368 165.28213501 44.366196 -1.3333334 0.10000056
1367 165.28213501 44.366196 -0.6666667 0.10000056
856 165.28213501 35.915493 0.0 4.5569763e-07
857 165.28213501 35.915493 -0.6666667 4.5569763e-07
864 165.28213501 33.09859 0.0 4.1995665e-07
863 165.28213501 33.80282 -0.6666667 4.2889192e-07
564 164.746368408 21.830986 0.0 0.20000029
565 164.746368408 21.830986 -0.6666667 0.20000029
572 164.746368408 19.014084 0.0 0.20000024
571 164.746368408 19.71831 -0.6666667 0.20000026
60 164.746368408 4.2253523 -2.0 0.10000005
61 164.746368408 3.5211267 -1.3333334 0.100000046
68 164.746368408 1.4084507 -2.0 0.10000002
67 164.746368408 1.4084507 -1.3333334 0.10000002
1366 164.746353149 44.366196 0.0 0.10000056
1367 164.746353149 44.366196 -0.6666667 0.10000056
1374 164.746353149 43.661972 -0.6666667 0.10000055
1373 164.746353149 43.661972 0.0 0.10000055
862 164.746353149 33.80282 0.0 4.2889192e-07
863 164.746353149 33.80282 -0.6666667 4.2889192e-07
870 164.746353149 30.985916 0.0 3.931509e-07
869 164.746353149 31.690142 -0.6666667 4.0208616e-07
1069 164.300125122 33.09859 2.0 0.10000042
1070 164.300125122 33.09859 1.3333334 0.10000042
1077 164.300125122 31.690142 0.6666667 0.100000404
1076 164.300125122 31.690142 1.3333334 0.100000404
565 164.300125122 21.830986 -0.6666667 0.20000029
566 164.300125122 21.12676 0.0 0.20000027
573 164.300125122 19.014084 -0.6666667 0.20000024
572 164.300125122 19.014084 0.0 0.20000024
870 164.300140381 30.985916 0.0 3.931509e-07
871 164.300140381 30.985916 -0.6666667 3.931509e-07
878 164.300140381 28.169014 0.0 3.574099e-07
877 164.300140381 28.87324 -0.6666667 3.6634515e-07
366 164.300140381 10.56338 1.3333334 0.20000014
367 164.300140381 10.56338 0.6666667 0.20000014
374 164.300140381 8.450705 2.0 0.2000001
373 164.300140381 9.154929 0.6666667 0.20000012
1077 163.936096191 31.690142 0.6666667 0.100000404
1078 163.936096191 30.985916 2.0 0.1000004
1085 163.936096191 35.915493 1.3333334 0.20000046
1084 163.936096191 35.915493 2.0 0.20000046
573 163.936096191 19.014084 -0.6666667 0.20000024
574 163.936096191 18.309858 0.0 0.20000024
581 163.936096191 16.197184 -0.6666667 0.20000021
580 163.936096191 16.197184 0.0 0.20000021
1375 163.936080933 43.661972 -1.3333334 0.10000055
1376 163.936080933 43.661972 -2.0 0.10000055
1383 163.936080933 46.478874 0.6666667 0.2000006
1382 163.936080933 46.478874 1.3333334 0.2000006
871 163.936080933 30.985916 -0.6666667 3.931509e-07
872 163.936080933 30.28169 0.0 3.8421567e-07
879 163.936080933 28.169014 -0.6666667 3.574099e-07
878 163.936080933 28.169014 0.0 3.574099e-07
1081 163.614212036 36.619717 2.0 0.20000046
1082 163.614212036 36.619717 1.3333334 0.20000046
1089 163.614212036 35.21127 0.6666667 0.20000045
1088 163.614212036 35.21127 1.3333334 0.20000045
577 163.614212036 17.605635 -0.6666667 0.20000023
578 163.614212036 16.90141 0.0 0.20000021
585 163.614212036 14.788733 -0.6666667 0.2000002
584 163.614212036 14.788733 0.0 0.2000002
1384 163.614212036 46.478874 0.0 0.2000006
1385 163.614212036 46.478874 -0.6666667 0.2000006
1392 163.614212036 45.774647 -0.6666667 0.20000058
1391 163.614212036 45.774647 0.0 0.20000058
880 163.614212036 27.464788 0.0 3.4847466e-07
881 163.614212036 27.464788 -0.6666667 3.4847466e-07
888 163.614212036 24.647888 0.0 3.1273368e-07
887 163.614212036 25.352112 -0.6666667 3.2166892e-07
1088 163.332168579 35.21127 1.3333334 0.20000045
1089 163.332168579 35.21127 0.6666667 0.20000045
1096 163.332168579 33.09859 2.0 0.20000042
1095 163.332168579 33.80282 0.6666667 0.20000044
584 163.332168579 14.788733 0.0 0.2000002
585 163.332168579 14.788733 -0.6666667 0.2000002
592 163.332168579 18.309858 1.3333334 2.3231642e-07
591 163.332168579 18.309858 2.0 2.3231642e-07
1369 163.33215332 44.366196 -2.0 0.10000056
1370 163.33215332 43.661972 2.0 0.10000055
1377 163.33215332 47.183098 2.0 0.2000006
1376 163.33215332 43.661972 -2.0 0.10000055
865 163.33215332 33.09859 -0.6666667 4.1995665e-07
866 163.33215332 32.394367 0.0 4.110214e-07
873 163.33215332 30.28169 -0.6666667 3.8421567e-07
872 163.33215332 30.28169 0.0 3.8421567e-07
1095 163.074050903 33.80282 0.6666667 0.20000044
1096 163.074050903 33.09859 2.0 0.20000042
1103 163.074050903 31.690142 2.0 0.2000004
1102 163.074050903 32.394367 0.6666667 0.20000042
591 163.074050903 18.309858 2.0 2.3231642e-07
592 163.074050903 18.309858 1.3333334 2.3231642e-07
599 163.074050903 16.90141 0.6666667 2.1444595e-07
598 163.074050903 16.90141 1.3333334 2.1444595e-07
1355 163.074050903 45.774647 -2.0 0.10000058
1356 163.074050903 45.070423 2.0 0.100000575
1363 163.074050903 44.366196 2.0 0.10000056
1362 163.074050903 45.070423 -2.0 0.100000575
851 163.074050903 26.056337 -2.0 0.20000033
852 163.074050903 25.352112 -1.3333334 0.20000033
859 163.074050903 35.21127 -0.6666667 4.467624e-07
858 163.074050903 35.21127 0.0 4.467624e-07
1102 162.785949707 32.394367 0.6666667 0.20000042
1103 162.785949707 31.690142 2.0 0.2000004
1110 162.785949707 42.957745 -0.6666667 5.450501e-07
1109 162.785949707 42.957745 0.0 5.450501e-07
598 162.785949707 16.90141 1.3333334 2.1444595e-07
599 162.785949707 16.90141 0.6666667 2.1444595e-07
606 162.785949707 14.788733 2.0 1.876402e-07
605 162.785949707 15.492958 0.6666667 1.9657546e-07
1349 162.785934448 45.774647 2.0 0.10000058
1350 162.785934448 45.774647 1.3333334 0.10000058
1357 162.785934448 45.070423 1.3333334 0.100000575
1356 162.785934448 45.070423 2.0 0.100000575
845 162.785934448 27.464788 -1.3333334 0.20000035
846 162.785934448 27.464788 -2.0 0.20000035
853 162.785934448 25.352112 -2.0 0.20000033
852 162.785934448 25.352112 -1.3333334 0.20000033
1109 162.504974365 42.957745 0.0 5.450501e-07
1110 162.504974365 42.957745 -0.6666667 5.450501e-07
1117 162.504974365 41.549297 0.0 5.271796e-07
1116 162.504974365 42.25352 -2.0 5.3611484e-07
605 162.504974365 15.492958 0.6666667 1.9657546e-07
606 162.504974365 14.788733 2.0 1.876402e-07
613 162.504974365 13.380281 2.0 1.697697e-07
612 162.504974365 14.084507 0.6666667 1.7870495e-07
1334 162.504989624 43.661972 0.0 5.539854e-07
1335 162.504989624 43.661972 -0.6666667 5.539854e-07
1342 162.504989624 46.478874 2.0 0.10000059
1341 162.504989624 47.183098 0.0 0.1000006
830 162.504989624 32.394367 -1.3333334 0.20000042
831 162.504989624 32.394367 -2.0 0.20000042
838 162.504989624 29.577465 -1.3333334 0.20000038
837 162.504989624 30.28169 -2.0 0.20000039
1116 162.232543945 42.25352 -2.0 5.3611484e-07
1117 162.232543945 41.549297 0.0 5.271796e-07
1124 162.232543945 40.84507 -2.0 5.1824435e-07
1123 162.232543945 40.84507 -1.3333334 5.1824435e-07
612 162.232543945 14.084507 0.6666667 1.7870495e-07
613 162.232543945 13.380281 2.0 1.697697e-07
620 162.232543945 18.309858 1.3333334 0.10000023
619 162.232543945 18.309858 2.0 0.10000023
1328 162.232543945 44.366196 -0.6666667 5.629206e-07
1329 162.232543945 44.366196 -1.3333334 5.629206e-07
1336 162.232543945 43.661972 -1.3333334 5.539854e-07
1335 162.232543945 43.661972 -0.6666667 5.539854e-07
824 162.232543945 34.507042 -1.3333334 0.20000044
825 162.232543945 34.507042 -2.0 0.20000044
832 162.232543945 31.690142 -1.3333334 0.2000004
831 162.232543945 32.394367 -2.0 0.20000042
1123 161.977767944 40.84507 -1.3333334 5.1824435e-07
1124 161.977767944 40.84507 -2.0 5.1824435e-07
1131 161.977767944 39.43662 -1.3333334 5.0037386e-07
1130 161.977767944 39.43662 -0.6666667 5.0037386e-07
619 161.977767944 18.309858 2.0 0.10000023
620 161.977767944 18.309858 1.3333334 0.10000023
627 161.977767944 16.90141 0.6666667 0.10000022
626 161.977767944 16.90141 1.3333334 0.10000022
810 161.977767944 27.464788 -2.0 0.10000035
811 161.977767944 26.760563 -0.6666667 0.100000344
818 161.977767944 36.619717 -1.3333334 0.20000046
817 161.977767944 25.352112 -2.0 0.10000032
306 161.977767944 11.971831 2.0 1.5189921e-07
307 161.977767944 11.971831 1.3333334 1.5189921e-07
314 161.977767944 10.56338 0.6666667 1.3402871e-07
313 161.977767944 10.56338 1.3333334 1.3402871e-07
1130 161.754180908 39.43662 -0.6666667 5.0037386e-07
1131 161.754180908 39.43662 -1.3333334 5.0037386e-07
1138 161.754180908 38.028168 -0.6666667 4.8250337e-07
1137 161.754180908 38.028168 0.0 4.8250337e-07
626 161.754180908 16.90141 1.3333334 0.10000022
627 161.754180908 16.90141 0.6666667 0.10000022
634 161.754180908 14.788733 2.0 0.10000019
633 161.754180908 15.492958 0.6666667 0.100000195
1299 161.754180908 38.028168 0.6666667 0.20000048
1300 161.754180908 37.323944 2.0 0.20000048
1307 161.754180908 46.478874 -0.6666667 5.8972637e-07
1306 161.754180908 46.478874 0.0 5.8972637e-07
795 161.754180908 32.394367 -2.0 0.10000041
796 161.754180908 31.690142 -1.3333334 0.100000404
803 161.754180908 29.577465 -2.0 0.100000374
802 161.754180908 29.577465 -1.3333334 0.100000374
633 161.569030762 15.492958 0.6666667 0.100000195
634 161.569030762 14.788733 2.0 0.10000019
641 161.569030762 13.380281 1.3333334 0.10000017
640 161.569030762 13.380281 2.0 0.10000017
129 161.569030762 4.9295774 0.0 6.254673e-08
130 161.569030762 4.9295774 -0.6666667 6.254673e-08
137 161.569030762 2.1126761 0.0 2.6805743e-08
136 161.569030762 2.8169014 -0.6666667 3.5740992e-08
781 161.569030762 24.647888 -2.0 3.1273368e-07
782 161.569030762 36.619717 -1.3333334 0.10000046
789 161.569030762 34.507042 -2.0 0.10000044
788 161.569030762 34.507042 -1.3333334 0.10000044
277 161.569030762 6.338028 1.3333334 0.20000008
278 161.569030762 6.338028 0.6666667 0.20000008
285 161.569030762 4.2253523 2.0 0.20000006
284 161.569030762 4.9295774 0.6666667 0.20000006
578 161.417678833 16.90141 0.0 0.20000021
579 161.417678833 16.90141 -0.6666667 0.20000021
586 161.417678833 14.084507 0.0 0.20000018
585 161.417678833 14.788733 -0.6666667 0.2000002
74 161.417678833 11.971831 -2.0 0.20000015
75 161.417678833 11.267606 -1.3333334 0.20000015
82 161.417678833 9.154929 -2.0 0.20000012
81 161.417678833 9.154929 -1.3333334 0.20000012
768 161.417694092 28.87324 -1.3333334 3.6634515e-07
769 161.417694092 28.87324 -2.0 3.6634515e-07
776 161.417694092 26.056337 -1.3333334 3.3060417e-07
775 161.417694092 26.760563 -2.0 3.395394e-07
264 161.417694092 2.1126761 2.0 0.10000003
265 161.417694092 2.1126761 1.3333334 0.10000003
272 161.417694092 0.70422536 0.6666667 0.10000001
271 161.417694092 0.70422536 1.3333334 0.10000001
586 161.291931152 14.084507 0.0 0.20000018
587 161.291931152 14.084507 -0.6666667 0.20000018
594 161.291931152 17.605635 2.0 2.233812e-07
593 161.291931152 18.309858 0.6666667 2.3231642e-07
82 161.291931152 9.154929 -2.0 0.20000012
83 161.291931152 8.450705 -1.3333334 0.2000001
90 161.291931152 6.338028 -2.0 0.20000008
89 161.291931152 6.338028 -1.3333334 0.20000008
1266 161.29196167 39.43662 0.6666667 0.1000005
1267 161.29196167 38.732395 2.0 0.10000049
1274 161.29196167 37.323944 1.3333334 0.10000047
1273 161.29196167 37.323944 2.0 0.10000047
762 161.29196167 30.985916 -1.3333334 3.931509e-07
763 161.29196167 30.985916 -2.0 3.931509e-07
770 161.29196167 28.169014 -1.3333334 3.574099e-07
769 161.29196167 28.87324 -2.0 3.6634515e-07
593 161.186294556 18.309858 0.6666667 2.3231642e-07
594 161.186294556 17.605635 2.0 2.233812e-07
601 161.186294556 16.197184 1.3333334 2.055107e-07
600 161.186294556 16.197184 2.0 2.055107e-07
89 161.186294556 6.338028 -1.3333334 0.20000008
90 161.186294556 6.338028 -2.0 0.20000008
97 161.186294556 3.5211267 -1.3333334 0.20000005
96 161.186294556 4.2253523 -2.0 0.20000006
1287 161.186309814 40.84507 0.6666667 0.20000052
1288 161.186309814 40.140846 2.0 0.20000051
1295 161.186309814 38.732395 1.3333334 0.2000005
1294 161.186309814 38.732395 2.0 0.2000005
783 161.186309814 36.619717 -2.0 0.10000046
784 161.186309814 35.915493 -1.3333334 0.100000456
791 161.186309814 33.80282 -2.0 0.100000426
790 161.186309814 33.80282 -1.3333334 0.100000426
600 161.100463867 16.197184 2.0 2.055107e-07
601 161.100463867 16.197184 1.3333334 2.055107e-07
608 161.100463867 14.788733 0.6666667 1.876402e-07
607 161.100463867 14.788733 1.3333334 1.876402e-07
96 161.100463867 4.2253523 -2.0 0.20000006
97 161.100463867 3.5211267 -1.3333334 0.20000005
104 161.100463867 1.4084507 -2.0 0.20000002
103 161.100463867 1.4084507 -1.3333334 0.20000002
1308 161.100448608 46.478874 -1.3333334 5.8972637e-07
1309 161.100448608 46.478874 -2.0 5.8972637e-07
1316 161.100448608 45.774647 -2.0 5.807911e-07
1315 161.100448608 45.774647 -1.3333334 5.807911e-07
804 161.100448608 28.87324 -1.3333334 0.10000037
805 161.100448608 28.87324 -2.0 0.10000037
812 161.100448608 26.760563 -1.3333334 0.100000344
811 161.100448608 26.760563 -0.6666667 0.100000344
607 161.033355713 14.788733 1.3333334 1.876402e-07
608 161.033355713 14.788733 0.6666667 1.876402e-07
615 161.033355713 13.380281 0.6666667 1.697697e-07
614 161.033355713 13.380281 1.3333334 1.697697e-07
103 161.033355713 1.4084507 -1.3333334 0.20000002
104 161.033355713 1.4084507 -2.0 0.20000002
111 161.033355713 11.267606 0.0 1.4296397e-07
110 161.033355713 11.971831 -0.6666667 1.5189921e-07
601 160.528305054 16.197184 1.3333334 2.055107e-07
602 160.528305054 16.197184 0.6666667 2.055107e-07
609 160.528305054 14.788733 0.0 1.876402e-07
608 160.528305054 14.788733 0.6666667 1.876402e-07
97 160.528305054 3.5211267 -1.3333334 0.20000005
98 160.528305054 3.5211267 -2.0 0.20000005
105 160.528305054 0.70422536 -1.3333334 0.20000002
104 160.528305054 1.4084507 -2.0 0.20000002
594 160.583740234 17.605635 2.0 2.233812e-07
595 160.583740234 17.605635 1.3333334 2.233812e-07
602 160.583740234 16.197184 0.6666667 2.055107e-07
601 160.583740234 16.197184 1.3333334 2.055107e-07
90 160.583740234 6.338028 -2.0 0.20000008
91 160.583740234 5.633803 -1.3333334 0.20000008
98 160.583740234 3.5211267 -2.0 0.20000005
97 160.583740234 3.5211267 -1.3333334 0.20000005
587 160.652099609 14.084507 -0.6666667 0.20000018
588 160.652099609 13.380281 0.0 0.20000017
595 160.652099609 17.605635 1.3333334 2.233812e-07
594 160.652099609 17.605635 2.0 2.233812e-07
83 160.652099609 8.450705 -1.3333334 0.2000001
84 160.652099609 8.450705 -2.0 0.2000001
91 160.652099609 5.633803 -1.3333334 0.20000008
90 160.652099609 6.338028 -2.0 0.20000008
769 160.652114868 28.87324 -2.0 3.6634515e-07
770 160.652114868 28.169014 -1.3333334 3.574099e-07
777 160.652114868 26.056337 -2.0 3.3060417e-07
776 160.652114868 26.056337 -1.3333334 3.3060417e-07
265 160.652114868 2.1126761 1.3333334 0.10000003
266 160.652114868 2.1126761 0.6666667 0.10000003
273 160.652114868 -1.2688052e-09 2.0 0.1
272 160.652114868 0.70422536 0.6666667 0.10000001
790 160.583740234 33.80282 -1.3333334 0.100000426
791 160.583740234 33.80282 -2.0 0.100000426
798 160.583740234 30.985916 -1.3333334 0.1000004
797 160.583740234 31.690142 -2.0 0.100000404
286 160.583740234 4.2253523 1.3333334 0.20000006
287 160.583740234 4.2253523 0.6666667 0.20000006
294 160.583740234 2.1126761 2.0 0.20000003
293 160.583740234 2.8169014 0.6666667 0.20000003
811 160.528289795 26.760563 -0.6666667 0.100000344
812 160.528289795 26.760563 -1.3333334 0.100000344
819 160.528289795 36.619717 -2.0 0.20000046
818 160.528289795 36.619717 -1.3333334 0.20000046
307 160.528289795 11.971831 1.3333334 1.5189921e-07
308 160.528289795 11.971831 0.6666667 1.5189921e-07
315 160.528289795 9.859155 2.0 1.2509346e-07
314 160.528289795 10.56338 0.6666667 1.3402871e-07
1111 159.800506592 42.957745 -1.3333334 5.450501e-07
1112 159.800506592 42.957745 -2.0 5.450501e-07
1119 159.800506592 41.549297 -1.3333334 5.271796e-07
1118 159.800506592 41.549297 -0.6666667 5.271796e-07
607 159.800506592 14.788733 1.3333334 1.876402e-07
608 159.800506592 14.788733 0.6666667 1.876402e-07
615 159.800506592 13.380281 0.6666667 1.697697e-07
614 159.800506592 13.380281 1.3333334 1.697697e-07
1104 159.832763672 31.690142 1.3333334 0.2000004
1105 159.832763672 31.690142 0.6666667 0.2000004
1112 159.832763672 42.957745 -2.0 5.450501e-07
1111 159.832763672 42.957745 -1.3333334 5.450501e-07
600 159.832763672 16.197184 2.0 2.055107e-07
601 159.832763672 16.197184 1.3333334 2.055107e-07
608 159.832763672 14.788733 0.6666667 1.876402e-07
607 159.832763672 14.788733 1.3333334 1.876402e-07
1097 159.874298096 33.09859 1.3333334 0.20000042
1098 159.874298096 33.09859 0.6666667 0.20000042
1105 159.874298096 31.690142 0.6666667 0.2000004
1104 159.874298096 31.690142 1.3333334 0.2000004
593 159.874298096 18.309858 0.6666667 2.3231642e-07
594 159.874298096 17.605635 2.0 2.233812e-07
601 159.874298096 16.197184 1.3333334 2.055107e-07
600 159.874298096 16.197184 2.0 2.055107e-07
1294 159.874298096 38.732395 2.0 0.2000005
1295 159.874298096 38.732395 1.3333334 0.2000005
1302 159.874298096 37.323944 0.6666667 0.20000048
1301 159.874298096 37.323944 1.3333334 0.20000048
790 159.874298096 33.80282 -1.3333334 0.100000426
791 159.874298096 33.80282 -2.0 0.100000426
798 159.874298096 30.985916 -1.3333334 0.1000004
797 159.874298096 31.690142 -2.0 0.100000404
1090 159.92414856 34.507042 2.0 0.20000044
1091 159.92414856 34.507042 1.3333334 0.20000044
1098 159.92414856 33.09859 0.6666667 0.20000042
1097 159.92414856 33.09859 1.3333334 0.20000042
586 159.92414856 14.084507 0.0 0.20000018
587 159.92414856 14.084507 -0.6666667 0.20000018
594 159.92414856 17.605635 2.0 2.233812e-07
593 159.92414856 18.309858 0.6666667 2.3231642e-07
1273 159.92414856 37.323944 2.0 0.10000047
1274 159.92414856 37.323944 1.3333334 0.10000047
1281 159.92414856 42.25352 0.6666667 0.20000054
1280 159.92414856 42.25352 1.3333334 0.20000054
769 159.92414856 28.87324 -2.0 3.6634515e-07
770 159.92414856 28.169014 -1.3333334 3.574099e-07
777 159.92414856 26.056337 -2.0 3.3060417e-07
776 159.92414856 26.056337 -1.3333334 3.3060417e-07
580 160.732925415 16.197184 0.0 0.20000021
581 160.732925415 16.197184 -0.6666667 0.20000021
588 160.732925415 13.380281 0.0 0.20000017
587 160.732925415 14.084507 -0.6666667 0.20000018
76 160.732925415 11.267606 -2.0 0.20000015
77 160.732925415 10.56338 -1.3333334 0.20000014
84 160.732925415 8.450705 -2.0 0.2000001
83 160.732925415 8.450705 -1.3333334 0.2000001
775 160.732910156 26.760563 -2.0 3.395394e-07
776 160.732910156 26.056337 -1.3333334 3.3060417e-07
783 160.732910156 36.619717 -2.0 0.10000046
782 160.732910156 36.619717 -1.3333334 0.10000046
271 160.732910156 0.70422536 1.3333334 0.10000001
272 160.732910156 0.70422536 0.6666667 0.10000001
279 160.732910156 5.633803 2.0 0.20000008
278 160.732910156 6.338028 0.6666667 0.20000008
782 159.982971191 36.619717 -1.3333334 0.10000046
783 159.982971191 36.619717 -2.0 0.10000046
790 159.982971191 33.80282 -1.3333334 0.100000426
789 159.982971191 34.507042 -2.0 0.10000044
278 159.982971191 6.338028 0.6666667 0.20000008
279 159.982971191 5.633803 2.0 0.20000008
286 159.982971191 4.2253523 1.3333334 0.20000006
285 159.982971191 4.2253523 2.0 0.20000006
1137 160.827041626 38.028168 0.0 4.8250337e-07
1138 160.827041626 38.028168 -0.6666667 4.8250337e-07
1145 160.827041626 36.619717 -1.3333334 4.6463285e-07
1144 160.827041626 37.323944 -2.0 4.7356812e-07
633 160.827041626 15.492958 0.6666667 0.100000195
634 160.827041626 14.788733 2.0 0.10000019
641 160.827041626 13.380281 1.3333334 0.10000017
640 160.827041626 13.380281 2.0 0.10000017
1285 160.827041626 40.84507 2.0 0.20000052
1286 160.827041626 40.84507 1.3333334 0.20000052
1293 160.827041626 39.43662 0.6666667 0.20000051
1292 160.827041626 39.43662 1.3333334 0.20000051
781 160.827041626 24.647888 -2.0 3.1273368e-07
782 160.827041626 36.619717 -1.3333334 0.10000046
789 160.827041626 34.507042 -2.0 0.10000044
788 160.827041626 34.507042 -1.3333334 0.10000044
1138 160.047851562 38.028168 -0.6666667 4.8250337e-07
1139 160.047851562 38.028168 -1.3333334 4.8250337e-07
1146 160.047851562 36.619717 -2.0 4.6463285e-07
1145 160.047851562 36.619717 -1.3333334 4.6463285e-07
634 160.047851562 14.788733 2.0 0.10000019
635 160.047851562 14.788733 1.3333334 0.10000019
642 160.047851562 13.380281 0.6666667 0.10000017
641 160.047851562 13.380281 1.3333334 0.10000017
631 160.939941406 15.492958 2.0 0.100000195
632 160.939941406 15.492958 1.3333334 0.100000195
639 160.939941406 14.084507 0.6666667 0.10000018
638 160.939941406 14.084507 1.3333334 0.10000018
127 160.939941406 5.633803 0.0 7.1481985e-08
128 160.939941406 5.633803 -0.6666667 7.1481985e-08
135 160.939941406 2.8169014 0.0 3.5740992e-08
134 160.939941406 3.5211267 -0.6666667 4.4676238e-08
796 160.939941406 31.690142 -1.3333334 0.100000404
797 160.939941406 31.690142 -2.0 0.100000404
804 160.939941406 28.87324 -1.3333334 0.10000037
803 160.939941406 29.577465 -2.0 0.100000374
292 160.939941406 2.8169014 1.3333334 0.20000003
293 160.939941406 2.8169014 0.6666667 0.20000003
300 160.939941406 0.70422536 2.0 0.20000002
299 160.939941406 1.4084507 0.6666667 0.20000002
1135 160.122711182 38.732395 -1.3333334 4.9143864e-07
1136 160.122711182 38.732395 -2.0 4.9143864e-07
1143 160.122711182 37.323944 -1.3333334 4.7356812e-07
1142 160.122711182 37.323944 -0.6666667 4.7356812e-07
631 160.122711182 15.492958 2.0 0.100000195
632 160.122711182 15.492958 1.3333334 0.100000195
639 160.122711182 14.084507 0.6666667 0.10000018
638 160.122711182 14.084507 1.3333334 0.10000018
1300 160.122680664 37.323944 2.0 0.20000048
1301 160.122680664 37.323944 1.3333334 0.20000048
1308 160.122680664 46.478874 -1.3333334 5.8972637e-07
1307 160.122680664 46.478874 -0.6666667 5.8972637e-07
796 160.122680664 31.690142 -1.3333334 0.100000404
797 160.122680664 31.690142 -2.0 0.100000404
804 160.122680664 28.87324 -1.3333334 0.10000037
803 160.122680664 29.577465 -2.0 0.100000374
624 161.082305908 17.605635 0.6666667 0.100000225
625 161.082305908 16.90141 2.0 0.10000022
632 161.082305908 15.492958 1.3333334 0.100000195
631 161.082305908 15.492958 2.0 0.100000195
120 161.082305908 8.450705 -0.6666667 1.0722298e-07
121 161.082305908 7.746479 0.0 9.828773e-08
128 161.082305908 5.633803 -0.6666667 7.1481985e-08
127 161.082305908 5.633803 0.0 7.1481985e-08
1314 161.082305908 45.774647 -0.6666667 5.807911e-07
1315 161.082305908 45.774647 -1.3333334 5.807911e-07
1322 161.082305908 45.070423 -1.3333334 5.718559e-07
1321 161.082305908 45.070423 -0.6666667 5.718559e-07
810 161.082305908 27.464788 -2.0 0.10000035
811 161.082305908 26.760563 -0.6666667 0.100000344
818 161.082305908 36.619717 -1.3333334 0.20000046
817 161.082305908 25.352112 -2.0 0.10000032
1128 160.196899414 40.140846 -2.0 5.0930913e-07
1129 160.196899414 39.43662 0.0 5.0037386e-07
1136 160.196899414 38.732395 -2.0 4.9143864e-07
1135 160.196899414 38.732395 -1.3333334 4.9143864e-07
624 160.196899414 17.605635 0.6666667 0.100000225
625 160.196899414 16.90141 2.0 0.10000022
632 160.196899414 15.492958 1.3333334 0.100000195
631 160.196899414 15.492958 2.0 0.100000195
802 160.196914673 29.577465 -1.3333334 0.100000374
803 160.196914673 29.577465 -2.0 0.100000374
810 160.196914673 27.464788 -2.0 0.10000035
809 160.196914673 27.464788 -1.3333334 0.10000035
298 160.196914673 1.4084507 1.3333334 0.20000002
299 160.196914673 1.4084507 0.6666667 0.20000002
306 160.196914673 11.971831 2.0 1.5189921e-07
305 160.196914673 -2.5376103e-09 0.6666667 0.2
617 161.257385254 12.676056 1.3333334 1.6083446e-07
618 161.257385254 12.676056 0.6666667 1.6083446e-07
625 161.257385254 16.90141 2.0 0.10000022
624 161.257385254 17.605635 0.6666667 0.100000225
113 161.257385254 10.56338 0.0 1.3402871e-07
114 161.257385254 10.56338 -0.6666667 1.3402871e-07
121 161.257385254 7.746479 0.0 9.828773e-08
120 161.257385254 8.450705 -0.6666667 1.0722298e-07
816 161.257385254 25.352112 -1.3333334 0.10000032
817 161.257385254 25.352112 -2.0 0.10000032
824 161.257385254 34.507042 -1.3333334 0.20000044
823 161.257385254 35.21127 -2.0 0.20000045
312 161.257385254 10.56338 2.0 1.3402871e-07
313 161.257385254 10.56338 1.3333334 1.3402871e-07
320 161.257385254 9.154929 0.6666667 1.1615821e-07
319 161.257385254 9.154929 1.3333334 1.1615821e-07
817 160.286148071 25.352112 -2.0 0.10000032
818 160.286148071 36.619717 -1.3333334 0.20000046
825 160.286148071 34.507042 -2.0 0.20000044
824 160.286148071 34.507042 -1.3333334 0.20000044
313 160.286148071 10.56338 1.3333334 1.3402871e-07
314 160.286148071 10.56338 0.6666667 1.3402871e-07
321 160.286148071 8.450705 2.0 1.0722298e-07
320 160.286148071 9.154929 0.6666667 1.1615821e-07
610 161.45098877 14.084507 2.0 1.7870495e-07
611 161.45098877 14.084507 1.3333334 1.7870495e-07
618 161.45098877 12.676056 0.6666667 1.6083446e-07
617 161.45098877 12.676056 1.3333334 1.6083446e-07
106 161.45098877 0.70422536 -2.0 0.20000002
107 161.45098877 -2.5376103e-09 -1.3333334 0.2
114 161.45098877 10.56338 -0.6666667 1.3402871e-07
113 161.45098877 10.56338 0.0 1.3402871e-07
831 161.45098877 32.394367 -2.0 0.20000042
832 161.45098877 31.690142 -1.3333334 0.2000004
839 161.45098877 29.577465 -2.0 0.20000038
838 161.45098877 29.577465 -1.3333334 0.20000038
327 161.45098877 7.0422535 2.0 8.9352476e-08
328 161.45098877 7.0422535 1.3333334 8.9352476e-08
335 161.45098877 11.971831 0.6666667 0.10000015
334 161.45098877 11.971831 1.3333334 0.10000015
1114 160.397064209 42.25352 -0.6666667 5.3611484e-07
1115 160.397064209 42.25352 -1.3333334 5.3611484e-07
1122 160.397064209 40.84507 -0.6666667 5.1824435e-07
1121 160.397064209 40.84507 0.0 5.1824435e-07
610 160.397064209 14.084507 2.0 1.7870495e-07
611 160.397064209 14.084507 1.3333334 1.7870495e-07
618 160.397064209 12.676056 0.6666667 1.6083446e-07
617 160.397064209 12.676056 1.3333334 1.6083446e-07
1335 160.397064209 43.661972 -0.6666667 5.539854e-07
1336 160.397064209 43.661972 -1.3333334 5.539854e-07
1343 160.397064209 46.478874 1.3333334 0.10000059
1342 160.397064209 46.478874 2.0 0.10000059
831 160.397064209 32.394367 -2.0 0.20000042
832 160.397064209 31.690142 -1.3333334 0.2000004
839 160.397064209 29.577465 -2.0 0.20000038
838 160.397064209 29.577465 -1.3333334 0.20000038
603 161.653091431 15.492958 2.0 1.9657546e-07
604 161.653091431 15.492958 1.3333334 1.9657546e-07
611 161.653091431 14.084507 1.3333334 1.7870495e-07
610 161.653091431 14.084507 2.0 1.7870495e-07
99 161.653091431 2.8169014 -1.3333334 0.20000003
100 161.653091431 2.8169014 -2.0 0.20000003
107 161.653091431 -2.5376103e-09 -1.3333334 0.2
106 161.653091431 0.70422536 -2.0 0.20000002
837 161.653091431 30.28169 -2.0 0.20000039
838 161.653091431 29.577465 -1.3333334 0.20000038
845 161.653091431 27.464788 -1.3333334 0.20000035
844 161.653091431 27.464788 -0.6666667 0.20000035
333 161.653091431 11.971831 2.0 0.10000015
334 161.653091431 11.971831 1.3333334 0.10000015
341 161.653091431 10.56338 0.6666667 0.100000136
340 161.653091431 10.56338 1.3333334 0.100000136
1107 160.521560669 30.985916 1.3333334 0.20000039
1108 160.521560669 30.985916 0.6666667 0.20000039
1115 160.521560669 42.25352 -1.3333334 5.3611484e-07
1114 160.521560669 42.25352 -0.6666667 5.3611484e-07
603 160.521560669 15.492958 2.0 1.9657546e-07
604 160.521560669 15.492958 1.3333334 1.9657546e-07
611 160.521560669 14.084507 1.3333334 1.7870495e-07
610 160.521560669 14.084507 2.0 1.7870495e-07
1341 160.521530151 47.183098 0.0 0.1000006
1342 160.521530151 46.478874 2.0 0.10000059
1349 160.521530151 45.774647 2.0 0.10000058
1348 160.521530151 46.478874 -2.0 0.10000059
837 160.521530151 30.28169 -2.0 0.20000039
838 160.521530151 29.577465 -1.3333334 0.20000038
845 160.521530151 27.464788 -1.3333334 0.20000035
844 160.521530151 27.464788 -0.6666667 0.20000035
596 161.863494873 17.605635 0.6666667 2.233812e-07
597 161.863494873 16.90141 2.0 2.1444595e-07
604 161.863494873 15.492958 1.3333334 1.9657546e-07
603 161.863494873 15.492958 2.0 1.9657546e-07
92 161.863494873 5.633803 -2.0 0.20000008
93 161.863494873 4.9295774 -1.3333334 0.20000006
100 161.863494873 2.8169014 -2.0 0.20000003
99 161.863494873 2.8169014 -1.3333334 0.20000003
852 161.863510132 25.352112 -1.3333334 0.20000033
853 161.863510132 25.352112 -2.0 0.20000033
860 161.863510132 34.507042 0.0 4.3782714e-07
859 161.863510132 35.21127 -0.6666667 4.467624e-07
348 161.863510132 8.450705 2.0 0.100000106
349 161.863510132 8.450705 1.3333334 0.100000106
356 161.863510132 7.0422535 0.6666667 0.10000009
355 161.863510132 7.0422535 1.3333334 0.10000009
1100 160.655487061 32.394367 2.0 0.20000042
1101 160.655487061 32.394367 1.3333334 0.20000042
1108 160.655487061 30.985916 0.6666667 0.20000039
1107 160.655487061 30.985916 1.3333334 0.20000039
596 160.655487061 17.605635 0.6666667 2.233812e-07
597 160.655487061 16.90141 2.0 2.1444595e-07
604 160.655487061 15.492958 1.3333334 1.9657546e-07
603 160.655487061 15.492958 2.0 1.9657546e-07
1356 160.655487061 45.070423 2.0 0.100000575
1357 160.655487061 45.070423 1.3333334 0.100000575
1364 160.655487061 44.366196 1.3333334 0.10000056
1363 160.655487061 44.366196 2.0 0.10000056
852 160.655487061 25.352112 -1.3333334 0.20000033
853 160.655487061 25.352112 -2.0 0.20000033
860 160.655487061 34.507042 0.0 4.3782714e-07
859 160.655487061 35.21127 -0.6666667 4.467624e-07
589 162.103179932 13.380281 -0.6666667 0.20000017
590 162.103179932 12.676056 -0.6666667 0.20000017
597 162.103179932 16.90141 2.0 2.1444595e-07
596 162.103179932 17.605635 0.6666667 2.233812e-07
85 162.103179932 7.746479 -1.3333334 0.2000001
86 162.103179932 7.746479 -2.0 0.2000001
93 162.103179932 4.9295774 -1.3333334 0.20000006
92 162.103179932 5.633803 -2.0 0.20000008
866 162.103164673 32.394367 0.0 4.110214e-07
867 162.103164673 32.394367 -0.6666667 4.110214e-07
874 162.103164673 29.577465 0.0 3.7528042e-07
873 162.103164673 30.28169 -0.6666667 3.8421567e-07
362 162.103164673 11.267606 2.0 0.20000015
363 162.103164673 11.267606 1.3333334 0.20000015
370 162.103164673 9.859155 0.6666667 0.20000012
369 162.103164673 9.859155 1.3333334 0.20000012
1093 160.820999146 33.80282 2.0 0.20000044
1094 160.820999146 33.80282 1.3333334 0.20000044
1101 160.820999146 32.394367 1.3333334 0.20000042
1100 160.820999146 32.394367 2.0 0.20000042
589 160.820999146 13.380281 -0.6666667 0.20000017
590 160.820999146 12.676056 -0.6666667 0.20000017
597 160.820999146 16.90141 2.0 2.1444595e-07
596 160.820999146 17.605635 0.6666667 2.233812e-07
1370 160.820983887 43.661972 2.0 0.10000055
1371 160.820983887 43.661972 1.3333334 0.10000055
1378 160.820983887 47.183098 1.3333334 0.2000006
1377 160.820983887 47.183098 2.0 0.2000006
866 160.820983887 32.394367 0.0 4.110214e-07
867 160.820983887 32.394367 -0.6666667 4.110214e-07
874 160.820983887 29.577465 0.0 3.7528042e-07
873 160.820983887 30.28169 -0.6666667 3.8421567e-07
582 162.377166748 15.492958 0.0 0.2000002
583 162.377166748 15.492958 -0.6666667 0.2000002
590 162.377166748 12.676056 -0.6666667 0.20000017
589 162.377166748 13.380281 -0.6666667 0.20000017
78 162.377166748 10.56338 -2.0 0.20000014
79 162.377166748 9.859155 -1.3333334 0.20000012
86 162.377166748 7.746479 -2.0 0.2000001
85 162.377166748 7.746479 -1.3333334 0.2000001
872 162.377197266 30.28169 0.0 3.8421567e-07
873 162.377197266 30.28169 -0.6666667 3.8421567e-07
880 162.377197266 27.464788 0.0 3.4847466e-07
879 162.377197266 28.169014 -0.6666667 3.574099e-07
368 162.377197266 9.859155 2.0 0.20000012
369 162.377197266 9.859155 1.3333334 0.20000012
376 162.377197266 8.450705 0.6666667 0.2000001
375 162.377197266 8.450705 1.3333334 0.2000001
1086 161.019012451 35.915493 0.6666667 0.20000046
1087 161.019012451 35.21127 2.0 0.20000045
1094 161.019012451 33.80282 1.3333334 0.20000044
1093 161.019012451 33.80282 2.0 0.20000044
582 161.019012451 15.492958 0.0 0.2000002
583 161.019012451 15.492958 -0.6666667 0.2000002
590 161.019012451 12.676056 -0.6666667 0.20000017
589 161.019012451 13.380281 -0.6666667 0.20000017
575 162.69342041 18.309858 -0.6666667 0.20000024
576 162.69342041 17.605635 0.0 0.20000023
583 162.69342041 15.492958 -0.6666667 0.2000002
582 162.69342041 15.492958 0.0 0.2000002
71 162.69342041 -1.2688052e-09 -1.3333334 0.1
72 162.69342041 -1.2688052e-09 -2.0 0.1
79 162.69342041 9.859155 -1.3333334 0.20000012
78 162.69342041 10.56338 -2.0 0.20000014
1380 162.693389893 47.183098 0.0 0.2000006
1381 162.693389893 46.478874 2.0 0.2000006
1388 162.693389893 45.774647 2.0 0.20000058
1387 162.693389893 46.478874 -2.0 0.2000006
876 162.693389893 28.87324 0.0 3.6634515e-07
877 162.693389893 28.87324 -0.6666667 3.6634515e-07
884 162.693389893 26.056337 0.0 3.3060417e-07
883 162.693389893 26.760563 -0.6666667 3.395394e-07
1079 161.248535156 30.985916 1.3333334 0.1000004
1080 161.248535156 30.985916 0.6666667 0.1000004
1087 161.248535156 35.21127 2.0 0.20000045
1086 161.248535156 35.915493 0.6666667 0.20000046
575 161.248535156 18.309858 -0.6666667 0.20000024
576 161.248535156 17.605635 0.0 0.20000023
583 161.248535156 15.492958 -0.6666667 0.2000002
582 161.248535156 15.492958 0.0 0.2000002
1070 163.035690308 33.09859 1.3333334 0.10000042
1071 163.035690308 33.09859 0.6666667 0.10000042
1078 163.035690308 30.985916 2.0 0.1000004
1077 163.035690308 31.690142 0.6666667 0.100000404
566 163.035690308 21.12676 0.0 0.20000027
567 163.035690308 21.12676 -0.6666667 0.20000027
574 163.035690308 18.309858 0.0 0.20000024
573 163.035690308 19.014084 -0.6666667 0.20000024
871 163.035705566 30.985916 -0.6666667 3.931509e-07
872 163.035705566 30.28169 0.0 3.8421567e-07
879 163.035705566 28.169014 -0.6666667 3.574099e-07
878 163.035705566 28.169014 0.0 3.574099e-07
367 163.035705566 10.56338 0.6666667 0.20000014
368 163.035705566 9.859155 2.0 0.20000012
375 163.035705566 8.450705 1.3333334 0.2000001
374 163.035705566 8.450705 2.0 0.2000001
572 161.488876343 19.014084 0.0 0.20000024
573 161.488876343 19.014084 -0.6666667 0.20000024
580 161.488876343 16.197184 0.0 0.20000021
579 161.488876343 16.90141 -0.6666667 0.20000021
68 161.488876343 1.4084507 -2.0 0.10000002
69 161.488876343 0.70422536 -1.3333334 0.10000001
76 161.488876343 11.267606 -2.0 0.20000015
75 161.488876343 11.267606 -1.3333334 0.20000015
876 161.48890686 28.87324 0.0 3.6634515e-07
877 161.48890686 28.87324 -0.6666667 3.6634515e-07
884 161.48890686 26.056337 0.0 3.3060417e-07
883 161.48890686 26.760563 -0.6666667 3.395394e-07
372 161.48890686 9.154929 1.3333334 0.20000012
373 161.48890686 9.154929 0.6666667 0.20000012
380 161.48890686 7.0422535 2.0 0.20000009
379 161.48890686 7.746479 0.6666667 0.2000001
1068 163.365249634 33.80282 0.6666667 0.100000426
1069 163.365249634 33.09859 2.0 0.10000042
1076 163.365249634 31.690142 1.3333334 0.100000404
1075 163.365249634 31.690142 2.0 0.100000404
564 163.365249634 21.830986 0.0 0.20000029
565 163.365249634 21.830986 -0.6666667 0.20000029
572 163.365249634 19.014084 0.0 0.20000024
571 163.365249634 19.71831 -0.6666667 0.20000026
1367 163.365219116 44.366196 -0.6666667 0.10000056
1368 163.365219116 44.366196 -1.3333334 0.10000056
1375 163.365219116 43.661972 -1.3333334 0.10000055
1374 163.365219116 43.661972 -0.6666667 0.10000055
863 163.365219116 33.80282 -0.6666667 4.2889192e-07
864 163.365219116 33.09859 0.0 4.1995665e-07
871 163.365219116 30.985916 -0.6666667 3.931509e-07
870 163.365219116 30.985916 0.0 3.931509e-07
571 161.75869751 19.71831 -0.6666667 0.20000026
572 161.75869751 19.014084 0.0 0.20000024
579 161.75869751 16.90141 -0.6666667 0.20000021
578 161.75869751 16.90141 0.0 0.20000021
67 161.75869751 1.4084507 -1.3333334 0.10000002
68 161.75869751 1.4084507 -2.0 0.10000002
75 161.75869751 11.267606 -1.3333334 0.20000015
74 161.75869751 11.971831 -2.0 0.20000015
864 161.758666992 33.09859 0.0 4.1995665e-07
865 161.758666992 33.09859 -0.6666667 4.1995665e-07
872 161.758666992 30.28169 0.0 3.8421567e-07
871 161.758666992 30.985916 -0.6666667 3.931509e-07
360 161.758666992 11.971831 1.3333334 0.20000015
361 161.758666992 11.971831 0.6666667 0.20000015
368 161.758666992 9.859155 2.0 0.20000012
367 161.758666992 10.56338 0.6666667 0.20000014
1061 163.753158569 35.21127 1.3333334 0.10000045
1062 163.753158569 35.21127 0.6666667 0.10000045
1069 163.753158569 33.09859 2.0 0.10000042
1068 163.753158569 33.80282 0.6666667 0.100000426
557 163.753158569 24.647888 -0.6666667 0.20000032
558 163.753158569 23.943663 0.0 0.2000003
565 163.753158569 21.830986 -0.6666667 0.20000029
564 163.753158569 21.830986 0.0 0.20000029
857 163.753189087 35.915493 -0.6666667 4.5569763e-07
858 163.753189087 35.21127 0.0 4.467624e-07
865 163.753189087 33.09859 -0.6666667 4.1995665e-07
864 163.753189087 33.09859 0.0 4.1995665e-07
353 163.753189087 7.746479 0.6666667 0.1000001
354 163.753189087 7.0422535 2.0 0.10000009
361 163.753189087 11.971831 0.6666667 0.20000015
360 163.753189087 11.971831 1.3333334 0.20000015
558 162.063964844 23.943663 0.0 0.2000003
559 162.063964844 23.943663 -0.6666667 0.2000003
566 162.063964844 21.12676 0.0 0.20000027
565 162.063964844 21.830986 -0.6666667 0.20000029
54 162.063964844 6.338028 -2.0 0.10000008
55 162.063964844 5.633803 -1.3333334 0.100000076
62 162.063964844 3.5211267 -2.0 0.100000046
61 162.063964844 3.5211267 -1.3333334 0.100000046
858 162.063964844 35.21127 0.0 4.467624e-07
859 162.063964844 35.21127 -0.6666667 4.467624e-07
866 162.063964844 32.394367 0.0 4.110214e-07
865 162.063964844 33.09859 -0.6666667 4.1995665e-07
354 162.063964844 7.0422535 2.0 0.10000009
355 162.063964844 7.0422535 1.3333334 0.10000009
362 162.063964844 11.267606 2.0 0.20000015
361 162.063964844 11.971831 0.6666667 0.20000015
1062 157.447784424 35.21127 0.6666667 0.10000045
1063 157.447784424 34.507042 2.0 0.10000044
1070 157.447784424 33.09859 1.3333334 0.10000042
1069 157.447784424 33.09859 2.0 0.10000042
558 157.447784424 23.943663 0.0 0.2000003
559 157.447784424 23.943663 -0.6666667 0.2000003
566 157.447784424 21.12676 0.0 0.20000027
565 157.447784424 21.830986 -0.6666667 0.20000029
1063 147.234710693 34.507042 2.0 0.10000044
1064 147.234710693 34.507042 1.3333334 0.10000044
1071 147.234710693 33.09859 0.6666667 0.10000042
1070 147.234710693 33.09859 1.3333334 0.10000042
559 147.234710693 23.943663 -0.6666667 0.2000003
560 147.234710693 23.239437 0.0 0.2000003
567 147.234710693 21.12676 -0.6666667 0.20000027
566 147.234710693 21.12676 0.0 0.20000027
1075 160.066497803 31.690142 2.0 0.100000404
1076 160.066497803 31.690142 1.3333334 0.100000404
1083 160.066497803 36.619717 0.6666667 0.20000046
1082 160.066497803 36.619717 1.3333334 0.20000046
571 160.066497803 19.71831 -0.6666667 0.20000026
572 160.066497803 19.014084 0.0 0.20000024
579 160.066497803 16.90141 -0.6666667 0.20000021
578 160.066497803 16.90141 0.0 0.20000021
565 157.366607666 21.830986 -0.6666667 0.20000029
566 157.366607666 21.12676 0.0 0.20000027
573 157.366607666 19.014084 -0.6666667 0.20000024
572 157.366607666 19.014084 0.0 0.20000024
61 157.366607666 3.5211267 -1.3333334 0.100000046
62 157.366607666 3.5211267 -2.0 0.100000046
69 157.366607666 0.70422536 -1.3333334 0.10000001
68 157.366607666 1.4084507 -2.0 0.10000002
1361 160.262878418 45.070423 -1.3333334 0.100000575
1362 160.262878418 45.070423 -2.0 0.100000575
1369 160.262878418 44.366196 -2.0 0.10000056
1368 160.262878418 44.366196 -1.3333334 0.10000056
857 160.262878418 35.915493 -0.6666667 4.5569763e-07
858 160.262878418 35.21127 0.0 4.467624e-07
865 160.262878418 33.09859 -0.6666667 4.1995665e-07
864 160.262878418 33.09859 0.0 4.1995665e-07
862 157.4478302 33.80282 0.0 4.2889192e-07
863 157.4478302 33.80282 -0.6666667 4.2889192e-07
870 157.4478302 30.985916 0.0 3.931509e-07
869 157.4478302 31.690142 -0.6666667 4.0208616e-07
358 157.4478302 12.676056 0.0 0.20000017
359 157.4478302 11.971831 2.0 0.20000015
366 157.4478302 10.56338 1.3333334 0.20000014
365 157.4478302 10.56338 2.0 0.20000014
863 147.236068726 33.80282 -0.6666667 4.2889192e-07
864 147.236068726 33.09859 0.0 4.1995665e-07
871 147.236068726 30.985916 -0.6666667 3.931509e-07
870 147.236068726 30.985916 0.0 3.931509e-07
359 147.236068726 11.971831 2.0 0.20000015
360 147.236068726 11.971831 1.3333334 0.20000015
367 147.236068726 10.56338 0.6666667 0.20000014
366 147.236068726 10.56338 1.3333334 0.20000014
1368 160.066497803 44.366196 -1.3333334 0.10000056
1369 160.066497803 44.366196 -2.0 0.10000056
1376 160.066497803 43.661972 -2.0 0.10000055
1375 160.066497803 43.661972 -1.3333334 0.10000055
864 160.066497803 33.09859 0.0 4.1995665e-07
865 160.066497803 33.09859 -0.6666667 4.1995665e-07
872 160.066497803 30.28169 0.0 3.8421567e-07
871 160.066497803 30.985916 -0.6666667 3.931509e-07
869 157.36656189 31.690142 -0.6666667 4.0208616e-07
870 157.36656189 30.985916 0.0 3.931509e-07
877 157.36656189 28.87324 -0.6666667 3.6634515e-07
876 157.36656189 28.87324 0.0 3.6634515e-07
365 157.36656189 10.56338 2.0 0.20000014
366 157.36656189 10.56338 1.3333334 0.20000014
373 157.36656189 9.154929 0.6666667 0.20000012
372 157.36656189 9.154929 1.3333334 0.20000012
566 148.418319702 21.12676 0.0 0.20000027
567 148.418319702 21.12676 -0.6666667 0.20000027
574 148.418319702 18.309858 0.0 0.20000024
573 148.418319702 19.014084 -0.6666667 0.20000024
62 148.418319702 3.5211267 -2.0 0.100000046
63 148.418319702 2.8169014 -1.3333334 0.10000004
70 148.418319702 0.70422536 -2.0 0.10000001
69 148.418319702 0.70422536 -1.3333334 0.10000001
1373 148.417236328 43.661972 0.0 0.10000055
1374 148.417236328 43.661972 -0.6666667 0.10000055
1381 148.417236328 46.478874 2.0 0.2000006
1380 148.417236328 47.183098 0.0 0.2000006
869 148.417236328 31.690142 -0.6666667 4.0208616e-07
870 148.417236328 30.985916 0.0 3.931509e-07
877 148.417236328 28.87324 -0.6666667 3.6634515e-07
876 148.417236328 28.87324 0.0 3.6634515e-07
579 159.811767578 16.90141 -0.6666667 0.20000021
580 159.811767578 16.197184 0.0 0.20000021
587 159.811767578 14.084507 -0.6666667 0.20000018
586 159.811767578 14.084507 0.0 0.20000018
75 159.811767578 11.267606 -1.3333334 0.20000015
76 159.811767578 11.267606 -2.0 0.20000015
83 159.811767578 8.450705 -1.3333334 0.2000001
82 159.811767578 9.154929 -2.0 0.20000012
877 159.811767578 28.87324 -0.6666667 3.6634515e-07
878 159.811767578 28.169014 0.0 3.574099e-07
885 159.811767578 26.056337 -0.6666667 3.3060417e-07
884 159.811767578 26.056337 0.0 3.3060417e-07
373 159.811767578 9.154929 0.6666667 0.20000012
374 159.811767578 8.450705 2.0 0.2000001
381 159.811767578 7.0422535 1.3333334 0.20000009
380 159.811767578 7.0422535 2.0 0.20000009
573 157.299545288 19.014084 -0.6666667 0.20000024
574 157.299545288 18.309858 0.0 0.20000024
581 157.299545288 16.197184 -0.6666667 0.20000021
580 157.299545288 16.197184 0.0 0.20000021
69 157.299545288 0.70422536 -1.3333334 0.10000001
70 157.299545288 0.70422536 -2.0 0.10000001
77 157.299545288 10.56338 -1.3333334 0.20000014
76 157.299545288 11.267606 -2.0 0.20000015
1076 149.888000488 31.690142 1.3333334 0.100000404
1077 149.888000488 31.690142 0.6666667 0.100000404
1084 149.888000488 35.915493 2.0 0.20000046
1083 149.888000488 36.619717 0.6666667 0.20000046
572 149.888000488 19.014084 0.0 0.20000024
573 149.888000488 19.014084 -0.6666667 0.20000024
580 149.888000488 16.197184 0.0 0.20000021
579 149.888000488 16.90141 -0.6666667 0.20000021
878 157.299591064 28.169014 0.0 3.574099e-07
879 157.299591064 28.169014 -0.6666667 3.574099e-07
886 157.299591064 25.352112 0.0 3.2166892e-07
885 157.299591064 26.056337 -0.6666667 3.3060417e-07
374 157.299591064 8.450705 2.0 0.2000001
375 157.299591064 8.450705 1.3333334 0.2000001
382 157.299591064 7.0422535 0.6666667 0.20000009
381 157.299591064 7.0422535 1.3333334 0.20000009
1374 149.889068604 43.661972 -0.6666667 0.10000055
1375 149.889068604 43.661972 -1.3333334 0.10000055
1382 149.889068604 46.478874 1.3333334 0.2000006
1381 149.889068604 46.478874 2.0 0.2000006
870 149.889068604 30.985916 0.0 3.931509e-07
871 149.889068604 30.985916 -0.6666667 3.931509e-07
878 149.889068604 28.169014 0.0 3.574099e-07
877 149.889068604 28.87324 -0.6666667 3.6634515e-07
576 159.588150024 17.605635 0.0 0.20000023
577 159.588150024 17.605635 -0.6666667 0.20000023
584 159.588150024 14.788733 0.0 0.2000002
583 159.588150024 15.492958 -0.6666667 0.2000002
72 159.588150024 -1.2688052e-09 -2.0 0.1
73 159.588150024 11.971831 -1.3333334 0.20000015
80 159.588150024 9.859155 -2.0 0.20000012
79 159.588150024 9.859155 -1.3333334 0.20000012
1381 161.248504639 46.478874 2.0 0.2000006
1382 161.248504639 46.478874 1.3333334 0.2000006
1389 161.248504639 45.774647 1.3333334 0.20000058
1388 161.248504639 45.774647 2.0 0.20000058
877 161.248504639 28.87324 -0.6666667 3.6634515e-07
878 161.248504639 28.169014 0.0 3.574099e-07
885 161.248504639 26.056337 -0.6666667 3.3060417e-07
884 161.248504639 26.056337 0.0 3.3060417e-07
879 159.588104248 28.169014 -0.6666667 3.574099e-07
880 159.588104248 27.464788 0.0 3.4847466e-07
887 159.588104248 25.352112 -0.6666667 3.2166892e-07
886 159.588104248 25.352112 0.0 3.2166892e-07
375 159.588104248 8.450705 1.3333334 0.2000001
376 159.588104248 8.450705 0.6666667 0.2000001
383 159.588104248 23.943663 -1.3333334 3.0379843e-07
382 159.588104248 7.0422535 0.6666667 0.20000009
1080 157.236373901 30.985916 0.6666667 0.1000004
1081 157.236373901 36.619717 2.0 0.20000046
1088 157.236373901 35.21127 1.3333334 0.20000045
1087 157.236373901 35.21127 2.0 0.20000045
576 157.236373901 17.605635 0.0 0.20000023
577 157.236373901 17.605635 -0.6666667 0.20000023
584 157.236373901 14.788733 0.0 0.2000002
583 157.236373901 15.492958 -0.6666667 0.2000002
1383 157.236328125 46.478874 0.6666667 0.2000006
1384 157.236328125 46.478874 0.0 0.2000006
1391 157.236328125 45.774647 0.0 0.20000058
1390 157.236328125 45.774647 0.6666667 0.20000058
879 157.236328125 28.169014 -0.6666667 3.574099e-07
880 157.236328125 27.464788 0.0 3.4847466e-07
887 157.236328125 25.352112 -0.6666667 3.2166892e-07
886 157.236328125 25.352112 0.0 3.2166892e-07
577 150.997421265 17.605635 -0.6666667 0.20000023
578 150.997421265 16.90141 0.0 0.20000021
585 150.997421265 14.788733 -0.6666667 0.2000002
584 150.997421265 14.788733 0.0 0.2000002
73 150.997421265 11.971831 -1.3333334 0.20000015
74 150.997421265 11.971831 -2.0 0.20000015
81 150.997421265 9.154929 -1.3333334 0.20000012
80 150.997421265 9.859155 -2.0 0.20000012
880 150.996566772 27.464788 0.0 3.4847466e-07
881 150.996566772 27.464788 -0.6666667 3.4847466e-07
888 150.996566772 24.647888 0.0 3.1273368e-07
887 150.996566772 25.352112 -0.6666667 3.2166892e-07
376 150.996566772 8.450705 0.6666667 0.2000001
377 150.996566772 7.746479 2.0 0.2000001
384 150.996566772 23.943663 -2.0 3.0379843e-07
383 150.996566772 23.943663 -1.3333334 3.0379843e-07
583 159.360916138 15.492958 -0.6666667 0.2000002
584 159.360916138 14.788733 0.0 0.2000002
591 159.360916138 18.309858 2.0 2.3231642e-07
590 159.360916138 12.676056 -0.6666667 0.20000017
79 159.360916138 9.859155 -1.3333334 0.20000012
80 159.360916138 9.859155 -2.0 0.20000012
87 159.360916138 7.0422535 -1.3333334 0.20000009
86 159.360916138 7.746479 -2.0 0.2000001
1376 161.019012451 43.661972 -2.0 0.10000055
1377 161.019012451 47.183098 2.0 0.2000006
1384 161.019012451 46.478874 0.0 0.2000006
1383 161.019012451 46.478874 0.6666667 0.2000006
872 161.019012451 30.28169 0.0 3.8421567e-07
873 161.019012451 30.28169 -0.6666667 3.8421567e-07
880 161.019012451 27.464788 0.0 3.4847466e-07
879 161.019012451 28.169014 -0.6666667 3.574099e-07
873 159.360916138 30.28169 -0.6666667 3.8421567e-07
874 159.360916138 29.577465 0.0 3.7528042e-07
881 159.360916138 27.464788 -0.6666667 3.4847466e-07
880 159.360916138 27.464788 0.0 3.4847466e-07
369 159.360916138 9.859155 1.3333334 0.20000012
370 159.360916138 9.859155 0.6666667 0.20000012
377 159.360916138 7.746479 2.0 0.2000001
376 159.360916138 8.450705 0.6666667 0.2000001
1087 157.167633057 35.21127 2.0 0.20000045
1088 157.167633057 35.21127 1.3333334 0.20000045
1095 157.167633057 33.80282 0.6666667 0.20000044
1094 157.167633057 33.80282 1.3333334 0.20000044
583 157.167633057 15.492958 -0.6666667 0.2000002
584 157.167633057 14.788733 0.0 0.2000002
591 157.167633057 18.309858 2.0 2.3231642e-07
590 157.167633057 12.676056 -0.6666667 0.20000017
1377 157.167663574 47.183098 2.0 0.2000006
1378 157.167663574 47.183098 1.3333334 0.2000006
1385 157.167663574 46.478874 -0.6666667 0.2000006
1384 157.167663574 46.478874 0.0 0.2000006
873 157.167663574 30.28169 -0.6666667 3.8421567e-07
874 157.167663574 29.577465 0.0 3.7528042e-07
881 157.167663574 27.464788 -0.6666667 3.4847466e-07
880 157.167663574 27.464788 0.0 3.4847466e-07
584 152.167266846 14.788733 0.0 0.2000002
585 152.167266846 14.788733 -0.6666667 0.2000002
592 152.167266846 18.309858 1.3333334 2.3231642e-07
591 152.167266846 18.309858 2.0 2.3231642e-07
80 152.167266846 9.859155 -2.0 0.20000012
81 152.167266846 9.154929 -1.3333334 0.20000012
88 152.167266846 7.0422535 -2.0 0.20000009
87 152.167266846 7.0422535 -1.3333334 0.20000009
865 152.168151855 33.09859 -0.6666667 4.1995665e-07
866 152.168151855 32.394367 0.0 4.110214e-07
873 152.168151855 30.28169 -0.6666667 3.8421567e-07
872 152.168151855 30.28169 0.0 3.8421567e-07
361 152.168151855 11.971831 0.6666667 0.20000015
362 152.168151855 11.267606 2.0 0.20000015
369 152.168151855 9.859155 1.3333334 0.20000012
368 152.168151855 9.859155 2.0 0.20000012
590 159.170120239 12.676056 -0.6666667 0.20000017
591 159.170120239 18.309858 2.0 2.3231642e-07
598 159.170120239 16.90141 1.3333334 2.1444595e-07
597 159.170120239 16.90141 2.0 2.1444595e-07
86 159.170120239 7.746479 -2.0 0.2000001
87 159.170120239 7.0422535 -1.3333334 0.20000009
94 159.170120239 4.9295774 -2.0 0.20000006
93 159.170120239 4.9295774 -1.3333334 0.20000006
1362 159.17010498 45.070423 -2.0 0.100000575
1363 159.17010498 44.366196 2.0 0.10000056
1370 159.17010498 43.661972 2.0 0.10000055
1369 159.17010498 44.366196 -2.0 0.10000056
858 159.17010498 35.21127 0.0 4.467624e-07
859 159.17010498 35.21127 -0.6666667 4.467624e-07
866 159.17010498 32.394367 0.0 4.110214e-07
865 159.17010498 33.09859 -0.6666667 4.1995665e-07
1094 157.114227295 33.80282 1.3333334 0.20000044
1095 157.114227295 33.80282 0.6666667 0.20000044
1102 157.114227295 32.394367 0.6666667 0.20000042
1101 157.114227295 32.394367 1.3333334 0.20000042
590 157.114227295 12.676056 -0.6666667 0.20000017
591 157.114227295 18.309858 2.0 2.3231642e-07
598 157.114227295 16.90141 1.3333334 2.1444595e-07
597 157.114227295 16.90141 2.0 2.1444595e-07
859 157.114196777 35.21127 -0.6666667 4.467624e-07
860 157.114196777 34.507042 0.0 4.3782714e-07
867 157.114196777 32.394367 -0.6666667 4.110214e-07
866 157.114196777 32.394367 0.0 4.110214e-07
355 157.114196777 7.0422535 1.3333334 0.10000009
356 157.114196777 7.0422535 0.6666667 0.10000009
363 157.114196777 11.267606 1.3333334 0.20000015
362 157.114196777 11.267606 2.0 0.20000015
591 153.149749756 18.309858 2.0 2.3231642e-07
592 153.149749756 18.309858 1.3333334 2.3231642e-07
599 153.149749756 16.90141 0.6666667 2.1444595e-07
598 153.149749756 16.90141 1.3333334 2.1444595e-07
87 153.149749756 7.0422535 -1.3333334 0.20000009
88 153.149749756 7.0422535 -2.0 0.20000009
95 153.149749756 4.2253523 -1.3333334 0.20000006
94 153.149749756 4.9295774 -2.0 0.20000006
1363 153.149032593 44.366196 2.0 0.10000056
1364 153.149032593 44.366196 1.3333334 0.10000056
1371 153.149032593 43.661972 1.3333334 0.10000055
1370 153.149032593 43.661972 2.0 0.10000055
859 153.149032593 35.21127 -0.6666667 4.467624e-07
860 153.149032593 34.507042 0.0 4.3782714e-07
867 153.149032593 32.394367 -0.6666667 4.110214e-07
866 153.149032593 32.394367 0.0 4.110214e-07
597 159.004501343 16.90141 2.0 2.1444595e-07
598 159.004501343 16.90141 1.3333334 2.1444595e-07
605 159.004501343 15.492958 0.6666667 1.9657546e-07
604 159.004501343 15.492958 1.3333334 1.9657546e-07
93 159.004501343 4.9295774 -1.3333334 0.20000006
94 159.004501343 4.9295774 -2.0 0.20000006
101 159.004501343 2.1126761 -1.3333334 0.20000003
100 159.004501343 2.8169014 -2.0 0.20000003
844 159.004501343 27.464788 -0.6666667 0.20000035
845 159.004501343 27.464788 -1.3333334 0.20000035
852 159.004501343 25.352112 -1.3333334 0.20000033
851 159.004501343 26.056337 -2.0 0.20000033
340 159.004501343 10.56338 1.3333334 0.100000136
341 159.004501343 10.56338 0.6666667 0.100000136
348 159.004501343 8.450705 2.0 0.100000106
347 159.004501343 9.154929 0.6666667 0.10000012
1101 157.05796814 32.394367 1.3333334 0.20000042
1102 157.05796814 32.394367 0.6666667 0.20000042
1109 157.05796814 42.957745 0.0 5.450501e-07
1108 157.05796814 30.985916 0.6666667 0.20000039
597 157.05796814 16.90141 2.0 2.1444595e-07
598 157.05796814 16.90141 1.3333334 2.1444595e-07
605 157.05796814 15.492958 0.6666667 1.9657546e-07
604 157.05796814 15.492958 1.3333334 1.9657546e-07
1348 157.057983398 46.478874 -2.0 0.10000059
1349 157.057983398 45.774647 2.0 0.10000058
1356 157.057983398 45.070423 2.0 0.100000575
1355 157.057983398 45.774647 -2.0 0.10000058
844 157.057983398 27.464788 -0.6666667 0.20000035
845 157.057983398 27.464788 -1.3333334 0.20000035
852 157.057983398 25.352112 -1.3333334 0.20000033
851 157.057983398 26.056337 -2.0 0.20000033
598 154.045150757 16.90141 1.3333334 2.1444595e-07
599 154.045150757 16.90141 0.6666667 2.1444595e-07
606 154.045150757 14.788733 2.0 1.876402e-07
605 154.045150757 15.492958 0.6666667 1.9657546e-07
94 154.045150757 4.9295774 -2.0 0.20000006
95 154.045150757 4.2253523 -1.3333334 0.20000006
102 154.045150757 2.1126761 -2.0 0.20000003
101 154.045150757 2.1126761 -1.3333334 0.20000003
845 154.045837402 27.464788 -1.3333334 0.20000035
846 154.045837402 27.464788 -2.0 0.20000035
853 154.045837402 25.352112 -2.0 0.20000033
852 154.045837402 25.352112 -1.3333334 0.20000033
341 154.045837402 10.56338 0.6666667 0.100000136
342 154.045837402 9.859155 2.0 0.10000013
349 154.045837402 8.450705 1.3333334 0.100000106
348 154.045837402 8.450705 2.0 0.100000106
604 158.903533936 15.492958 1.3333334 1.9657546e-07
605 158.903533936 15.492958 0.6666667 1.9657546e-07
612 158.903533936 14.084507 0.6666667 1.7870495e-07
611 158.903533936 14.084507 1.3333334 1.7870495e-07
100 158.903533936 2.8169014 -2.0 0.20000003
101 158.903533936 2.1126761 -1.3333334 0.20000003
108 158.903533936 -2.5376103e-09 -2.0 0.2
107 158.903533936 -2.5376103e-09 -1.3333334 0.2
838 158.903533936 29.577465 -1.3333334 0.20000038
839 158.903533936 29.577465 -2.0 0.20000038
846 158.903533936 27.464788 -2.0 0.20000035
845 158.903533936 27.464788 -1.3333334 0.20000035
334 158.903533936 11.971831 1.3333334 0.10000015
335 158.903533936 11.971831 0.6666667 0.10000015
342 158.903533936 9.859155 2.0 0.10000013
341 158.903533936 10.56338 0.6666667 0.100000136
1108 157.045852661 30.985916 0.6666667 0.20000039
1109 157.045852661 42.957745 0.0 5.450501e-07
1116 157.045852661 42.25352 -2.0 5.3611484e-07
1115 157.045852661 42.25352 -1.3333334 5.3611484e-07
604 157.045852661 15.492958 1.3333334 1.9657546e-07
605 157.045852661 15.492958 0.6666667 1.9657546e-07
612 157.045852661 14.084507 0.6666667 1.7870495e-07
611 157.045852661 14.084507 1.3333334 1.7870495e-07
1342 157.045822144 46.478874 2.0 0.10000059
1343 157.045822144 46.478874 1.3333334 0.10000059
1350 157.045822144 45.774647 1.3333334 0.10000058
1349 157.045822144 45.774647 2.0 0.10000058
838 157.045822144 29.577465 -1.3333334 0.20000038
839 157.045822144 29.577465 -2.0 0.20000038
846 157.045822144 27.464788 -2.0 0.20000035
845 157.045822144 27.464788 -1.3333334 0.20000035
605 154.898254395 15.492958 0.6666667 1.9657546e-07
606 154.898254395 14.788733 2.0 1.876402e-07
613 154.898254395 13.380281 2.0 1.697697e-07
612 154.898254395 14.084507 0.6666667 1.7870495e-07
101 154.898254395 2.1126761 -1.3333334 0.20000003
102 154.898254395 2.1126761 -2.0 0.20000003
109 154.898254395 11.971831 0.0 1.5189921e-07
108 154.898254395 -2.5376103e-09 -2.0 0.2
830 154.897567749 32.394367 -1.3333334 0.20000042
831 154.897567749 32.394367 -2.0 0.20000042
838 154.897567749 29.577465 -1.3333334 0.20000038
837 154.897567749 30.28169 -2.0 0.20000039
326 154.897567749 7.746479 0.6666667 9.828773e-08
327 154.897567749 7.0422535 2.0 8.9352476e-08
334 154.897567749 11.971831 1.3333334 0.10000015
333 154.897567749 11.971831 2.0 0.10000015
611 158.827133179 14.084507 1.3333334 1.7870495e-07
612 158.827133179 14.084507 0.6666667 1.7870495e-07
619 158.827133179 18.309858 2.0 0.10000023
618 158.827133179 12.676056 0.6666667 1.6083446e-07
107 158.827133179 -2.5376103e-09 -1.3333334 0.2
108 158.827133179 -2.5376103e-09 -2.0 0.2
115 158.827133179 9.859155 0.0 1.2509346e-07
114 158.827133179 10.56338 -0.6666667 1.3402871e-07
823 158.82711792 35.21127 -2.0 0.20000045
824 158.82711792 34.507042 -1.3333334 0.20000044
831 158.82711792 32.394367 -2.0 0.20000042
830 158.82711792 32.394367 -1.3333334 0.20000042
319 158.82711792 9.154929 1.3333334 1.1615821e-07
320 158.82711792 9.154929 0.6666667 1.1615821e-07
327 158.82711792 7.0422535 2.0 8.9352476e-08
326 158.82711792 7.746479 0.6666667 9.828773e-08
1115 157.10295105 42.25352 -1.3333334 5.3611484e-07
1116 157.10295105 42.25352 -2.0 5.3611484e-07
1123 157.10295105 40.84507 -1.3333334 5.1824435e-07
1122 157.10295105 40.84507 -0.6666667 5.1824435e-07
611 157.10295105 14.084507 1.3333334 1.7870495e-07
612 157.10295105 14.084507 0.6666667 1.7870495e-07
619 157.10295105 18.309858 2.0 0.10000023
618 157.10295105 12.676056 0.6666667 1.6083446e-07
1327 157.102981567 44.366196 0.0 5.629206e-07
1328 157.102981567 44.366196 -0.6666667 5.629206e-07
1335 157.102981567 43.661972 -0.6666667 5.539854e-07
1334 157.102981567 43.661972 0.0 5.539854e-07
823 157.102981567 35.21127 -2.0 0.20000045
824 157.102981567 34.507042 -1.3333334 0.20000044
831 157.102981567 32.394367 -2.0 0.20000042
830 157.102981567 32.394367 -1.3333334 0.20000042
612 155.404434204 14.084507 0.6666667 1.7870495e-07
613 155.404434204 13.380281 2.0 1.697697e-07
620 155.404434204 18.309858 1.3333334 0.10000023
619 155.404434204 18.309858 2.0 0.10000023
108 155.404434204 -2.5376103e-09 -2.0 0.2
109 155.404434204 11.971831 0.0 1.5189921e-07
116 155.404434204 9.859155 -0.6666667 1.2509346e-07
115 155.404434204 9.859155 0.0 1.2509346e-07
824 155.404510498 34.507042 -1.3333334 0.20000044
825 155.404510498 34.507042 -2.0 0.20000044
832 155.404510498 31.690142 -1.3333334 0.2000004
831 155.404510498 32.394367 -2.0 0.20000042
320 155.404510498 9.154929 0.6666667 1.1615821e-07
321 155.404510498 8.450705 2.0 1.0722298e-07
328 155.404510498 7.0422535 1.3333334 8.9352476e-08
327 155.404510498 7.0422535 2.0 8.9352476e-08
1112 158.91293335 42.957745 -2.0 5.450501e-07
1113 158.91293335 42.25352 0.0 5.3611484e-07
1120 158.91293335 41.549297 -2.0 5.271796e-07
1119 158.91293335 41.549297 -1.3333334 5.271796e-07
608 158.91293335 14.788733 0.6666667 1.876402e-07
609 158.91293335 14.788733 0.0 1.876402e-07
616 158.91293335 12.676056 2.0 1.6083446e-07
615 158.91293335 13.380281 0.6666667 1.697697e-07
1105 158.904769897 31.690142 0.6666667 0.2000004
1106 158.904769897 30.985916 2.0 0.20000039
1113 158.904769897 42.25352 0.0 5.3611484e-07
1112 158.904769897 42.957745 -2.0 5.450501e-07
601 158.904769897 16.197184 1.3333334 2.055107e-07
602 158.904769897 16.197184 0.6666667 2.055107e-07
609 158.904769897 14.788733 0.0 1.876402e-07
608 158.904769897 14.788733 0.6666667 1.876402e-07
1315 159.832763672 45.774647 -1.3333334 5.807911e-07
1316 159.832763672 45.774647 -2.0 5.807911e-07
1323 159.832763672 45.070423 -2.0 5.718559e-07
1322 159.832763672 45.070423 -1.3333334 5.718559e-07
811 159.832763672 26.760563 -0.6666667 0.100000344
812 159.832763672 26.760563 -1.3333334 0.100000344
819 159.832763672 36.619717 -2.0 0.20000046
818 159.832763672 36.619717 -1.3333334 0.20000046
818 158.904769897 36.619717 -1.3333334 0.20000046
819 158.904769897 36.619717 -2.0 0.20000046
826 158.904769897 33.80282 -1.3333334 0.20000044
825 158.904769897 34.507042 -2.0 0.20000044
314 158.904769897 10.56338 0.6666667 1.3402871e-07
315 158.904769897 9.859155 2.0 1.2509346e-07
322 158.904769897 8.450705 1.3333334 1.0722298e-07
321 158.904769897 8.450705 2.0 1.0722298e-07
613 158.025588989 13.380281 2.0 1.697697e-07
614 158.025588989 13.380281 1.3333334 1.697697e-07
621 158.025588989 18.309858 0.6666667 0.10000023
620 158.025588989 18.309858 1.3333334 0.10000023
109 158.025588989 11.971831 0.0 1.5189921e-07
110 158.025588989 11.971831 -0.6666667 1.5189921e-07
117 158.025588989 9.154929 0.0 1.1615821e-07
116 158.025588989 9.859155 -0.6666667 1.2509346e-07
606 157.975753784 14.788733 2.0 1.876402e-07
607 157.975753784 14.788733 1.3333334 1.876402e-07
614 157.975753784 13.380281 1.3333334 1.697697e-07
613 157.975753784 13.380281 2.0 1.697697e-07
102 157.975753784 2.1126761 -2.0 0.20000003
103 157.975753784 1.4084507 -1.3333334 0.20000002
110 157.975753784 11.971831 -0.6666667 1.5189921e-07
109 157.975753784 11.971831 0.0 1.5189921e-07
1322 157.975784302 45.070423 -1.3333334 5.718559e-07
1323 157.975784302 45.070423 -2.0 5.718559e-07
1330 157.975784302 44.366196 -2.0 5.629206e-07
1329 157.975784302 44.366196 -1.3333334 5.629206e-07
818 157.975784302 36.619717 -1.3333334 0.20000046
819 157.975784302 36.619717 -2.0 0.20000046
826 157.975784302 33.80282 -1.3333334 0.20000044
825 157.975784302 34.507042 -2.0 0.20000044
1098 158.897872925 33.09859 0.6666667 0.20000042
1099 158.897872925 33.09859 0.0 0.20000042
1106 158.897872925 30.985916 2.0 0.20000039
1105 158.897872925 31.690142 0.6666667 0.2000004
594 158.897872925 17.605635 2.0 2.233812e-07
595 158.897872925 17.605635 1.3333334 2.233812e-07
602 158.897872925 16.197184 0.6666667 2.055107e-07
601 158.897872925 16.197184 1.3333334 2.055107e-07
797 158.897888184 31.690142 -2.0 0.100000404
798 158.897888184 30.985916 -1.3333334 0.1000004
805 158.897888184 28.87324 -2.0 0.10000037
804 158.897888184 28.87324 -1.3333334 0.10000037
293 158.897888184 2.8169014 0.6666667 0.20000003
294 158.897888184 2.1126761 2.0 0.20000003
301 158.897888184 0.70422536 1.3333334 0.20000002
300 158.897888184 0.70422536 2.0 0.20000002
599 157.920547485 16.90141 0.6666667 2.1444595e-07
600 157.920547485 16.197184 2.0 2.055107e-07
607 157.920547485 14.788733 1.3333334 1.876402e-07
606 157.920547485 14.788733 2.0 1.876402e-07
95 157.920547485 4.2253523 -1.3333334 0.20000006
96 157.920547485 4.2253523 -2.0 0.20000006
103 157.920547485 1.4084507 -1.3333334 0.20000002
102 157.920547485 2.1126761 -2.0 0.20000003
1301 157.920532227 37.323944 1.3333334 0.20000048
1302 157.920532227 37.323944 0.6666667 0.20000048
1309 157.920532227 46.478874 -2.0 5.8972637e-07
1308 157.920532227 46.478874 -1.3333334 5.8972637e-07
797 157.920532227 31.690142 -2.0 0.100000404
798 157.920532227 30.985916 -1.3333334 0.1000004
805 157.920532227 28.87324 -2.0 0.10000037
804 157.920532227 28.87324 -1.3333334 0.10000037
1110 157.045059204 42.957745 -0.6666667 5.450501e-07
1111 157.045059204 42.957745 -1.3333334 5.450501e-07
1118 157.045059204 41.549297 -0.6666667 5.271796e-07
1117 157.045059204 41.549297 0.0 5.271796e-07
606 157.045059204 14.788733 2.0 1.876402e-07
607 157.045059204 14.788733 1.3333334 1.876402e-07
614 157.045059204 13.380281 1.3333334 1.697697e-07
613 157.045059204 13.380281 2.0 1.697697e-07
825 157.045059204 34.507042 -2.0 0.20000044
826 157.045059204 33.80282 -1.3333334 0.20000044
833 157.045059204 31.690142 -2.0 0.2000004
832 157.045059204 31.690142 -1.3333334 0.2000004
321 157.045059204 8.450705 2.0 1.0722298e-07
322 157.045059204 8.450705 1.3333334 1.0722298e-07
329 157.045059204 7.0422535 0.6666667 8.9352476e-08
328 157.045059204 7.0422535 1.3333334 8.9352476e-08
1103 156.940704346 31.690142 2.0 0.2000004
1104 156.940704346 31.690142 1.3333334 0.2000004
1111 156.940704346 42.957745 -1.3333334 5.450501e-07
1110 156.940704346 42.957745 -0.6666667 5.450501e-07
599 156.940704346 16.90141 0.6666667 2.1444595e-07
600 156.940704346 16.197184 2.0 2.055107e-07
607 156.940704346 14.788733 1.3333334 1.876402e-07
606 156.940704346 14.788733 2.0 1.876402e-07
804 156.940704346 28.87324 -1.3333334 0.10000037
805 156.940704346 28.87324 -2.0 0.10000037
812 156.940704346 26.760563 -1.3333334 0.100000344
811 156.940704346 26.760563 -0.6666667 0.100000344
300 156.940704346 0.70422536 2.0 0.20000002
301 156.940704346 0.70422536 1.3333334 0.20000002
308 156.940704346 11.971831 0.6666667 1.5189921e-07
307 156.940704346 11.971831 1.3333334 1.5189921e-07
1091 158.884613037 34.507042 1.3333334 0.20000044
1092 158.884613037 34.507042 0.6666667 0.20000044
1099 158.884613037 33.09859 0.0 0.20000042
1098 158.884613037 33.09859 0.6666667 0.20000042
587 158.884613037 14.084507 -0.6666667 0.20000018
588 158.884613037 13.380281 0.0 0.20000017
595 158.884613037 17.605635 1.3333334 2.233812e-07
594 158.884613037 17.605635 2.0 2.233812e-07
776 158.884628296 26.056337 -1.3333334 3.3060417e-07
777 158.884628296 26.056337 -2.0 3.3060417e-07
784 158.884628296 35.915493 -1.3333334 0.100000456
783 158.884628296 36.619717 -2.0 0.10000046
272 158.884628296 0.70422536 0.6666667 0.10000001
273 158.884628296 -1.2688052e-09 2.0 0.1
280 158.884628296 5.633803 1.3333334 0.20000008
279 158.884628296 5.633803 2.0 0.20000008
592 157.843093872 18.309858 1.3333334 2.3231642e-07
593 157.843093872 18.309858 0.6666667 2.3231642e-07
600 157.843093872 16.197184 2.0 2.055107e-07
599 157.843093872 16.90141 0.6666667 2.1444595e-07
88 157.843093872 7.0422535 -2.0 0.20000009
89 157.843093872 6.338028 -1.3333334 0.20000008
96 157.843093872 4.2253523 -2.0 0.20000006
95 157.843093872 4.2253523 -1.3333334 0.20000006
1280 157.843093872 42.25352 1.3333334 0.20000054
1281 157.843093872 42.25352 0.6666667 0.20000054
1288 157.843093872 40.140846 2.0 0.20000051
1287 157.843093872 40.84507 0.6666667 0.20000052
776 157.843093872 26.056337 -1.3333334 3.3060417e-07
777 157.843093872 26.056337 -2.0 3.3060417e-07
784 157.843093872 35.915493 -1.3333334 0.100000456
783 157.843093872 36.619717 -2.0 0.10000046
1096 156.79888916 33.09859 2.0 0.20000042
1097 156.79888916 33.09859 1.3333334 0.20000042
1104 156.79888916 31.690142 1.3333334 0.2000004
1103 156.79888916 31.690142 2.0 0.2000004
592 156.79888916 18.309858 1.3333334 2.3231642e-07
593 156.79888916 18.309858 0.6666667 2.3231642e-07
600 156.79888916 16.197184 2.0 2.055107e-07
599 156.79888916 16.90141 0.6666667 2.1444595e-07
783 156.798950195 36.619717 -2.0 0.10000046
784 156.798950195 35.915493 -1.3333334 0.100000456
791 156.798950195 33.80282 -2.0 0.100000426
790 156.798950195 33.80282 -1.3333334 0.100000426
279 156.798950195 5.633803 2.0 0.20000008
280 156.798950195 5.633803 1.3333334 0.20000008
287 156.798950195 4.2253523 0.6666667 0.20000006
286 156.798950195 4.2253523 1.3333334 0.20000006
1083 159.982971191 36.619717 0.6666667 0.20000046
1084 159.982971191 35.915493 2.0 0.20000046
1091 159.982971191 34.507042 1.3333334 0.20000044
1090 159.982971191 34.507042 2.0 0.20000044
579 159.982971191 16.90141 -0.6666667 0.20000021
580 159.982971191 16.197184 0.0 0.20000021
587 159.982971191 14.084507 -0.6666667 0.20000018
586 159.982971191 14.084507 0.0 0.20000018
1084 158.870819092 35.915493 2.0 0.20000046
1085 158.870819092 35.915493 1.3333334 0.20000046
1092 158.870819092 34.507042 0.6666667 0.20000044
1091 158.870819092 34.507042 1.3333334 0.20000044
580 158.870819092 16.197184 0.0 0.20000021
581 158.870819092 16.197184 -0.6666667 0.20000021
588 158.870819092 13.380281 0.0 0.20000017
587 158.870819092 14.084507 -0.6666667 0.20000018
1286 158.870803833 40.84507 1.3333334 0.20000052
1287 158.870803833 40.84507 0.6666667 0.20000052
1294 158.870803833 38.732395 2.0 0.2000005
1293 158.870803833 39.43662 0.6666667 0.20000051
782 158.870803833 36.619717 -1.3333334 0.10000046
783 158.870803833 36.619717 -2.0 0.10000046
790 158.870803833 33.80282 -1.3333334 0.100000426
789 158.870803833 34.507042 -2.0 0.10000044
585 157.757507324 14.788733 -0.6666667 0.2000002
586 157.757507324 14.084507 0.0 0.20000018
593 157.757507324 18.309858 0.6666667 2.3231642e-07
592 157.757507324 18.309858 1.3333334 2.3231642e-07
81 157.757507324 9.154929 -1.3333334 0.20000012
82 157.757507324 9.154929 -2.0 0.20000012
89 157.757507324 6.338028 -1.3333334 0.20000008
88 157.757507324 7.0422535 -2.0 0.20000009
1279 157.757492065 42.25352 2.0 0.20000054
1280 157.757492065 42.25352 1.3333334 0.20000054
1287 157.757492065 40.84507 0.6666667 0.20000052
1286 157.757492065 40.84507 1.3333334 0.20000052
775 157.757492065 26.760563 -2.0 3.395394e-07
776 157.757492065 26.056337 -1.3333334 3.3060417e-07
783 157.757492065 36.619717 -2.0 0.10000046
782 157.757492065 36.619717 -1.3333334 0.10000046
1089 156.641235352 35.21127 0.6666667 0.20000045
1090 156.641235352 34.507042 2.0 0.20000044
1097 156.641235352 33.09859 1.3333334 0.20000042
1096 156.641235352 33.09859 2.0 0.20000042
585 156.641235352 14.788733 -0.6666667 0.2000002
586 156.641235352 14.084507 0.0 0.20000018
593 156.641235352 18.309858 0.6666667 2.3231642e-07
592 156.641235352 18.309858 1.3333334 2.3231642e-07
1272 156.641189575 38.028168 0.6666667 0.100000486
1273 156.641189575 37.323944 2.0 0.10000047
1280 156.641189575 42.25352 1.3333334 0.20000054
1279 156.641189575 42.25352 2.0 0.20000054
768 156.641189575 28.87324 -1.3333334 3.6634515e-07
769 156.641189575 28.87324 -2.0 3.6634515e-07
776 156.641189575 26.056337 -1.3333334 3.3060417e-07
775 156.641189575 26.760563 -2.0 3.395394e-07
639 158.847686768 14.084507 0.6666667 0.10000018
640 158.847686768 13.380281 2.0 0.10000017
647 158.847686768 18.309858 0.6666667 0.20000024
646 158.847686768 18.309858 1.3333334 0.20000024
135 158.847686768 2.8169014 0.0 3.5740992e-08
136 158.847686768 2.8169014 -0.6666667 3.5740992e-08
143 158.847686768 0.0 0.0 0.0
142 158.847686768 0.70422536 -0.6666667 8.935248e-09
774 160.047851562 26.760563 -1.3333334 3.395394e-07
775 160.047851562 26.760563 -2.0 3.395394e-07
782 160.047851562 36.619717 -1.3333334 0.10000046
781 160.047851562 24.647888 -2.0 3.1273368e-07
270 160.047851562 0.70422536 2.0 0.10000001
271 160.047851562 0.70422536 1.3333334 0.10000001
278 160.047851562 6.338028 0.6666667 0.20000008
277 160.047851562 6.338028 1.3333334 0.20000008
1278 158.847717285 42.957745 0.6666667 0.20000055
1279 158.847717285 42.25352 2.0 0.20000054
1286 158.847717285 40.84507 1.3333334 0.20000052
1285 158.847717285 40.84507 2.0 0.20000052
774 158.847717285 26.760563 -1.3333334 3.395394e-07
775 158.847717285 26.760563 -2.0 3.395394e-07
782 158.847717285 36.619717 -1.3333334 0.10000046
781 158.847717285 24.647888 -2.0 3.1273368e-07
640 157.6459198 13.380281 2.0 0.10000017
641 157.6459198 13.380281 1.3333334 0.10000017
648 157.6459198 17.605635 2.0 0.20000023
647 157.6459198 18.309858 0.6666667 0.20000024
136 157.6459198 2.8169014 -0.6666667 3.5740992e-08
137 157.6459198 2.1126761 0.0 2.6805743e-08
144 157.6459198 0.0 -0.6666667 0.0
143 157.6459198 0.0 0.0 0.0
1271 157.645935059 38.028168 1.3333334 0.100000486
1272 157.645935059 38.028168 0.6666667 0.100000486
1279 157.645935059 42.25352 2.0 0.20000054
1278 157.645935059 42.957745 0.6666667 0.20000055
767 157.645935059 29.577465 -2.0 3.7528042e-07
768 157.645935059 28.87324 -1.3333334 3.6634515e-07
775 157.645935059 26.760563 -2.0 3.395394e-07
774 157.645935059 26.760563 -1.3333334 3.395394e-07
1082 156.442581177 36.619717 1.3333334 0.20000046
1083 156.442581177 36.619717 0.6666667 0.20000046
1090 156.442581177 34.507042 2.0 0.20000044
1089 156.442581177 35.21127 0.6666667 0.20000045
578 156.442581177 16.90141 0.0 0.20000021
579 156.442581177 16.90141 -0.6666667 0.20000021
586 156.442581177 14.084507 0.0 0.20000018
585 156.442581177 14.788733 -0.6666667 0.2000002
1264 156.442657471 39.43662 2.0 0.1000005
1265 156.442657471 39.43662 1.3333334 0.1000005
1272 156.442657471 38.028168 0.6666667 0.100000486
1271 156.442657471 38.028168 1.3333334 0.100000486
760 156.442657471 31.690142 -1.3333334 4.0208616e-07
761 156.442657471 31.690142 -2.0 4.0208616e-07
768 156.442657471 28.87324 -1.3333334 3.6634515e-07
767 156.442657471 29.577465 -2.0 3.7528042e-07
638 158.824432373 14.084507 1.3333334 0.10000018
639 158.824432373 14.084507 0.6666667 0.10000018
646 158.824432373 18.309858 1.3333334 0.20000024
645 158.824432373 18.309858 2.0 0.20000024
134 158.824432373 3.5211267 -0.6666667 4.4676238e-08
135 158.824432373 2.8169014 0.0 3.5740992e-08
142 158.824432373 0.70422536 -0.6666667 8.935248e-09
141 158.824432373 0.70422536 0.0 8.935248e-09
788 158.824417114 34.507042 -1.3333334 0.10000044
789 158.824417114 34.507042 -2.0 0.10000044
796 158.824417114 31.690142 -1.3333334 0.100000404
795 158.824417114 32.394367 -2.0 0.10000041
284 158.824417114 4.9295774 0.6666667 0.20000006
285 158.824417114 4.2253523 2.0 0.20000006
292 158.824417114 2.8169014 1.3333334 0.20000003
291 158.824417114 2.8169014 2.0 0.20000003
632 157.52897644 15.492958 1.3333334 0.100000195
633 157.52897644 15.492958 0.6666667 0.100000195
640 157.52897644 13.380281 2.0 0.10000017
639 157.52897644 14.084507 0.6666667 0.10000018
128 157.52897644 5.633803 -0.6666667 7.1481985e-08
129 157.52897644 4.9295774 0.0 6.254673e-08
136 157.52897644 2.8169014 -0.6666667 3.5740992e-08
135 157.52897644 2.8169014 0.0 3.5740992e-08
789 157.528945923 34.507042 -2.0 0.10000044
790 157.528945923 33.80282 -1.3333334 0.100000426
797 157.528945923 31.690142 -2.0 0.100000404
796 157.528945923 31.690142 -1.3333334 0.100000404
285 157.528945923 4.2253523 2.0 0.20000006
286 157.528945923 4.2253523 1.3333334 0.20000006
293 157.528945923 2.8169014 0.6666667 0.20000003
292 157.528945923 2.8169014 1.3333334 0.20000003
1136 156.230712891 38.732395 -2.0 4.9143864e-07
1137 156.230712891 38.028168 0.0 4.8250337e-07
1144 156.230712891 37.323944 -2.0 4.7356812e-07
1143 156.230712891 37.323944 -1.3333334 4.7356812e-07
632 156.230712891 15.492958 1.3333334 0.100000195
633 156.230712891 15.492958 0.6666667 0.100000195
640 156.230712891 13.380281 2.0 0.10000017
639 156.230712891 14.084507 0.6666667 0.10000018
1293 156.230636597 39.43662 0.6666667 0.20000051
1294 156.230636597 38.732395 2.0 0.2000005
1301 156.230636597 37.323944 1.3333334 0.20000048
1300 156.230636597 37.323944 2.0 0.20000048
789 156.230636597 34.507042 -2.0 0.10000044
790 156.230636597 33.80282 -1.3333334 0.100000426
797 156.230636597 31.690142 -2.0 0.100000404
796 156.230636597 31.690142 -1.3333334 0.100000404
625 158.796325684 16.90141 2.0 0.10000022
626 158.796325684 16.90141 1.3333334 0.10000022
633 158.796325684 15.492958 0.6666667 0.100000195
632 158.796325684 15.492958 1.3333334 0.100000195
121 158.796325684 7.746479 0.0 9.828773e-08
122 158.796325684 7.746479 -0.6666667 9.828773e-08
129 158.796325684 4.9295774 0.0 6.254673e-08
128 158.796325684 5.633803 -0.6666667 7.1481985e-08
1306 158.796340942 46.478874 0.0 5.8972637e-07
1307 158.796340942 46.478874 -0.6666667 5.8972637e-07
1314 158.796340942 45.774647 -0.6666667 5.807911e-07
1313 158.796340942 45.774647 0.0 5.807911e-07
802 158.796340942 29.577465 -1.3333334 0.100000374
803 158.796340942 29.577465 -2.0 0.100000374
810 158.796340942 27.464788 -2.0 0.10000035
809 158.796340942 27.464788 -1.3333334 0.10000035
1129 157.385543823 39.43662 0.0 5.0037386e-07
1130 157.385543823 39.43662 -0.6666667 5.0037386e-07
1137 157.385543823 38.028168 0.0 4.8250337e-07
1136 157.385543823 38.732395 -2.0 4.9143864e-07
625 157.385543823 16.90141 2.0 0.10000022
626 157.385543823 16.90141 1.3333334 0.10000022
633 157.385543823 15.492958 0.6666667 0.100000195
632 157.385543823 15.492958 1.3333334 0.100000195
803 157.385574341 29.577465 -2.0 0.100000374
804 157.385574341 28.87324 -1.3333334 0.10000037
811 157.385574341 26.760563 -0.6666667 0.100000344
810 157.385574341 27.464788 -2.0 0.10000035
299 157.385574341 1.4084507 0.6666667 0.20000002
300 157.385574341 0.70422536 2.0 0.20000002
307 157.385574341 11.971831 1.3333334 1.5189921e-07
306 157.385574341 11.971831 2.0 1.5189921e-07
626 155.977233887 16.90141 1.3333334 0.10000022
627 155.977233887 16.90141 0.6666667 0.10000022
634 155.977233887 14.788733 2.0 0.10000019
633 155.977233887 15.492958 0.6666667 0.100000195
122 155.977233887 7.746479 -0.6666667 9.828773e-08
123 155.977233887 7.0422535 0.0 8.9352476e-08
130 155.977233887 4.9295774 -0.6666667 6.254673e-08
129 155.977233887 4.9295774 0.0 6.254673e-08
1307 155.977294922 46.478874 -0.6666667 5.8972637e-07
1308 155.977294922 46.478874 -1.3333334 5.8972637e-07
1315 155.977294922 45.774647 -1.3333334 5.807911e-07
1314 155.977294922 45.774647 -0.6666667 5.807911e-07
803 155.977294922 29.577465 -2.0 0.100000374
804 155.977294922 28.87324 -1.3333334 0.10000037
811 155.977294922 26.760563 -0.6666667 0.100000344
810 155.977294922 27.464788 -2.0 0.10000035
1121 160.286148071 40.84507 0.0 5.1824435e-07
1122 160.286148071 40.84507 -0.6666667 5.1824435e-07
1129 160.286148071 39.43662 0.0 5.0037386e-07
1128 160.286148071 40.140846 -2.0 5.0930913e-07
617 160.286148071 12.676056 1.3333334 1.6083446e-07
618 160.286148071 12.676056 0.6666667 1.6083446e-07
625 160.286148071 16.90141 2.0 0.10000022
624 160.286148071 17.605635 0.6666667 0.100000225
618 158.794570923 12.676056 0.6666667 1.6083446e-07
619 158.794570923 18.309858 2.0 0.10000023
626 158.794570923 16.90141 1.3333334 0.10000022
625 158.794570923 16.90141 2.0 0.10000022
114 158.794570923 10.56338 -0.6666667 1.3402871e-07
115 158.794570923 9.859155 0.0 1.2509346e-07
122 158.794570923 7.746479 -0.6666667 9.828773e-08
121 158.794570923 7.746479 0.0 9.828773e-08
1321 158.794570923 45.070423 -0.6666667 5.718559e-07
1322 158.794570923 45.070423 -1.3333334 5.718559e-07
1329 158.794570923 44.366196 -1.3333334 5.629206e-07
1328 158.794570923 44.366196 -0.6666667 5.629206e-07
817 158.794570923 25.352112 -2.0 0.10000032
818 158.794570923 36.619717 -1.3333334 0.20000046
825 158.794570923 34.507042 -2.0 0.20000044
824 158.794570923 34.507042 -1.3333334 0.20000044
1122 157.241638184 40.84507 -0.6666667 5.1824435e-07
1123 157.241638184 40.84507 -1.3333334 5.1824435e-07
1130 157.241638184 39.43662 -0.6666667 5.0037386e-07
1129 157.241638184 39.43662 0.0 5.0037386e-07
618 157.241638184 12.676056 0.6666667 1.6083446e-07
619 157.241638184 18.309858 2.0 0.10000023
626 157.241638184 16.90141 1.3333334 0.10000022
625 157.241638184 16.90141 2.0 0.10000022
809 157.241592407 27.464788 -1.3333334 0.10000035
810 157.241592407 27.464788 -2.0 0.10000035
817 157.241592407 25.352112 -2.0 0.10000032
816 157.241592407 25.352112 -1.3333334 0.10000032
305 157.241592407 -2.5376103e-09 0.6666667 0.2
306 157.241592407 11.971831 2.0 1.5189921e-07
313 157.241592407 10.56338 1.3333334 1.3402871e-07
312 157.241592407 10.56338 2.0 1.3402871e-07
619 155.707305908 18.309858 2.0 0.10000023
620 155.707305908 18.309858 1.3333334 0.10000023
627 155.707305908 16.90141 0.6666667 0.10000022
626 155.707305908 16.90141 1.3333334 0.10000022
115 155.707305908 9.859155 0.0 1.2509346e-07
116 155.707305908 9.859155 -0.6666667 1.2509346e-07
123 155.707305908 7.0422535 0.0 8.9352476e-08
122 155.707305908 7.746479 -0.6666667 9.828773e-08
1313 155.707244873 45.774647 0.0 5.807911e-07
1314 155.707244873 45.774647 -0.6666667 5.807911e-07
1321 155.707244873 45.070423 -0.6666667 5.718559e-07
1320 155.707244873 45.070423 0.0 5.718559e-07
809 155.707244873 27.464788 -1.3333334 0.10000035
810 155.707244873 27.464788 -2.0 0.10000035
817 155.707244873 25.352112 -2.0 0.10000032
816 155.707244873 25.352112 -1.3333334 0.10000032
614 160.984924316 13.380281 1.3333334 1.697697e-07
615 160.984924316 13.380281 0.6666667 1.697697e-07
622 160.984924316 17.605635 2.0 0.100000225
621 160.984924316 18.309858 0.6666667 0.10000023
110 160.984924316 11.971831 -0.6666667 1.5189921e-07
111 160.984924316 11.267606 0.0 1.4296397e-07
118 160.984924316 9.154929 -0.6666667 1.1615821e-07
117 160.984924316 9.154929 0.0 1.1615821e-07
1329 161.033355713 44.366196 -1.3333334 5.629206e-07
1330 161.033355713 44.366196 -2.0 5.629206e-07
1337 161.033355713 43.661972 -2.0 5.539854e-07
1336 161.033355713 43.661972 -1.3333334 5.539854e-07
825 161.033355713 34.507042 -2.0 0.20000044
826 161.033355713 33.80282 -1.3333334 0.20000044
833 161.033355713 31.690142 -2.0 0.2000004
832 161.033355713 31.690142 -1.3333334 0.2000004
1350 160.984954834 45.774647 1.3333334 0.10000058
1351 160.984954834 45.774647 0.6666667 0.10000058
1358 160.984954834 45.070423 0.6666667 0.100000575
1357 160.984954834 45.070423 1.3333334 0.100000575
846 160.984954834 27.464788 -2.0 0.20000035
847 160.984954834 26.760563 -0.6666667 0.20000035
854 160.984954834 36.619717 0.0 4.6463285e-07
853 160.984954834 25.352112 -2.0 0.20000033
621 160.954940796 18.309858 0.6666667 0.10000023
622 160.954940796 17.605635 2.0 0.100000225
629 160.954940796 16.197184 1.3333334 0.10000021
628 160.954940796 16.197184 2.0 0.10000021
117 160.954940796 9.154929 0.0 1.1615821e-07
118 160.954940796 9.154929 -0.6666667 1.1615821e-07
125 160.954940796 6.338028 0.0 8.041723e-08
124 160.954940796 7.0422535 -0.6666667 8.9352476e-08
1371 160.954940796 43.661972 1.3333334 0.10000055
1372 160.954940796 43.661972 0.6666667 0.10000055
1379 160.954940796 47.183098 0.6666667 0.2000006
1378 160.954940796 47.183098 1.3333334 0.2000006
867 160.954940796 32.394367 -0.6666667 4.110214e-07
868 160.954940796 31.690142 0.0 4.0208616e-07
875 160.954940796 29.577465 -0.6666667 3.7528042e-07
874 160.954940796 29.577465 0.0 3.7528042e-07
628 160.943710327 16.197184 2.0 0.10000021
629 160.943710327 16.197184 1.3333334 0.10000021
636 160.943710327 14.788733 0.6666667 0.10000019
635 160.943710327 14.788733 1.3333334 0.10000019
124 160.943710327 7.0422535 -0.6666667 8.9352476e-08
125 160.943710327 6.338028 0.0 8.041723e-08
132 160.943710327 4.2253523 -0.6666667 5.361149e-08
131 160.943710327 4.2253523 0.0 5.361149e-08
941 160.943710327 29.577465 0.0 0.20000038
942 160.943710327 29.577465 -0.6666667 0.20000038
949 160.943710327 26.056337 0.0 0.20000033
948 160.943710327 26.760563 0.0 0.20000035
437 160.943710327 17.605635 -1.3333334 0.100000225
438 160.943710327 17.605635 -2.0 0.100000225
445 160.943710327 14.788733 -1.3333334 0.10000019
444 160.943710327 15.492958 -2.0 0.100000195
636 160.431503296 14.788733 0.6666667 0.10000019
637 160.431503296 14.084507 2.0 0.10000018
644 160.431503296 12.676056 1.3333334 0.100000165
643 160.431503296 12.676056 2.0 0.100000165
132 160.431503296 4.2253523 -0.6666667 5.361149e-08
133 160.431503296 3.5211267 0.0 4.4676238e-08
140 160.431503296 1.4084507 -0.6666667 1.7870496e-08
139 160.431503296 1.4084507 0.0 1.7870496e-08
1139 160.949005127 38.028168 -1.3333334 4.8250337e-07
1140 160.949005127 38.028168 -2.0 4.8250337e-07
1147 160.949005127 42.957745 0.0 0.100000545
1146 160.949005127 36.619717 -2.0 4.6463285e-07
635 160.949005127 14.788733 1.3333334 0.10000019
636 160.949005127 14.788733 0.6666667 0.10000019
643 160.949005127 12.676056 2.0 0.100000165
642 160.949005127 13.380281 0.6666667 0.10000017
1438 160.948989868 47.887325 1.3333334 6.0759686e-07
1439 160.948989868 47.887325 0.6666667 6.0759686e-07
1446 160.948989868 47.183098 0.6666667 5.986616e-07
1445 160.948989868 47.183098 1.3333334 5.986616e-07
934 160.948989868 32.394367 -0.6666667 0.20000042
935 160.948989868 31.690142 0.0 0.2000004
942 160.948989868 29.577465 -0.6666667 0.20000038
941 160.948989868 29.577465 0.0 0.20000038
1198 160.971405029 40.84507 -2.0 0.20000052
1199 160.971405029 40.140846 0.0 0.20000051
1206 160.971405029 39.43662 -2.0 0.20000051
1205 160.971405029 39.43662 -1.3333334 0.20000051
694 160.971405029 19.014084 1.3333334 2.4125168e-07
695 160.971405029 19.014084 0.6666667 2.4125168e-07
702 160.971405029 23.239437 1.3333334 0.1000003
701 160.971405029 23.239437 2.0 0.1000003
1431 160.971405029 48.59155 1.3333334 6.165321e-07
1432 160.971405029 48.59155 0.6666667 6.165321e-07
1439 160.971405029 47.887325 0.6666667 6.0759686e-07
1438 160.971405029 47.887325 1.3333334 6.0759686e-07
927 160.971405029 35.21127 -0.6666667 0.20000045
928 160.971405029 34.507042 0.0 0.20000044
935 160.971405029 31.690142 0.0 0.2000004
934 160.971405029 32.394367 -0.6666667 0.20000042
687 161.012191772 20.422535 2.0 2.5912217e-07
688 161.012191772 20.422535 1.3333334 2.5912217e-07
695 161.012191772 19.014084 0.6666667 2.4125168e-07
694 161.012191772 19.014084 1.3333334 2.4125168e-07
183 161.012191772 11.267606 0.0 0.20000015
184 161.012191772 11.267606 -0.6666667 0.20000015
191 161.012191772 8.450705 0.0 0.2000001
190 161.012191772 9.154929 -0.6666667 0.20000012
1424 161.012207031 49.295776 1.3333334 6.2546735e-07
1425 161.012207031 49.295776 0.6666667 6.2546735e-07
1432 161.012207031 48.59155 0.6666667 6.165321e-07
1431 161.012207031 48.59155 1.3333334 6.165321e-07
920 161.012207031 25.352112 0.0 0.10000032
921 161.012207031 25.352112 -0.6666667 0.10000032
928 161.012207031 34.507042 0.0 0.20000044
927 161.012207031 35.21127 -0.6666667 0.20000045
680 161.070846558 22.535212 0.6666667 2.8592794e-07
681 161.070846558 21.830986 2.0 2.769927e-07
688 161.070846558 20.422535 1.3333334 2.5912217e-07
687 161.070846558 20.422535 2.0 2.5912217e-07
176 161.070846558 1.4084507 -0.6666667 0.10000002
177 161.070846558 0.70422536 0.0 0.10000001
184 161.070846558 11.267606 -0.6666667 0.20000015
183 161.070846558 11.267606 0.0 0.20000015
1417 161.070831299 50.0 1.3333334 6.3440257e-07
1418 161.070831299 50.0 0.6666667 6.3440257e-07
1425 161.070831299 49.295776 0.6666667 6.2546735e-07
1424 161.070831299 49.295776 1.3333334 6.2546735e-07
913 161.070831299 28.87324 -0.6666667 0.10000037
914 161.070831299 28.169014 0.0 0.10000036
921 161.070831299 25.352112 -0.6666667 0.10000032
920 161.070831299 25.352112 0.0 0.10000032
673 161.149246216 23.943663 0.6666667 3.0379843e-07
674 161.149246216 23.943663 0.0 3.0379843e-07
681 161.149246216 21.830986 2.0 2.769927e-07
680 161.149246216 22.535212 0.6666667 2.8592794e-07
169 161.149246216 3.5211267 0.0 0.100000046
170 161.149246216 3.5211267 -0.6666667 0.100000046
177 161.149246216 0.70422536 0.0 0.10000001
176 161.149246216 1.4084507 -0.6666667 0.10000002
1410 161.149230957 43.661972 1.3333334 0.20000055
1411 161.149230957 43.661972 0.6666667 0.20000055
1418 161.149230957 50.0 0.6666667 6.3440257e-07
1417 161.149230957 50.0 1.3333334 6.3440257e-07
906 161.149230957 30.985916 0.0 0.1000004
907 161.149230957 30.985916 -0.6666667 0.1000004
914 161.149230957 28.169014 0.0 0.10000036
913 161.149230957 28.87324 -0.6666667 0.10000037
1180 161.245941162 37.323944 -0.6666667 0.10000047
1181 161.245941162 37.323944 -1.3333334 0.10000047
1188 161.245941162 42.25352 -0.6666667 0.20000054
1187 161.245941162 42.25352 0.0 0.20000054
676 161.245941162 23.239437 1.3333334 2.9486318e-07
677 161.245941162 23.239437 0.6666667 2.9486318e-07
684 161.245941162 21.12676 2.0 2.6805742e-07
683 161.245941162 21.830986 0.6666667 2.769927e-07
883 161.245941162 26.760563 -0.6666667 3.395394e-07
884 161.245941162 26.056337 0.0 3.3060417e-07
891 161.245941162 36.619717 -0.6666667 0.10000046
890 161.245941162 36.619717 0.0 0.10000046
379 161.245941162 7.746479 0.6666667 0.2000001
380 161.245941162 7.0422535 2.0 0.20000009
387 161.245941162 22.535212 -1.3333334 2.8592794e-07
386 161.245941162 23.239437 -2.0 2.9486318e-07
1172 161.364196777 38.732395 -0.6666667 0.10000049
1173 161.364196777 38.732395 -1.3333334 0.10000049
1180 161.364196777 37.323944 -0.6666667 0.10000047
1179 161.364196777 37.323944 0.0 0.10000047
668 161.364196777 13.380281 0.6666667 0.20000017
669 161.364196777 12.676056 2.0 0.20000017
676 161.364196777 23.239437 1.3333334 2.9486318e-07
675 161.364196777 23.239437 2.0 2.9486318e-07
1403 161.364196777 44.366196 1.3333334 0.20000057
1404 161.364196777 44.366196 0.6666667 0.20000057
1411 161.364196777 43.661972 0.6666667 0.20000055
1410 161.364196777 43.661972 1.3333334 0.20000055
899 161.364196777 33.80282 -0.6666667 0.100000426
900 161.364196777 33.09859 0.0 0.10000042
907 161.364196777 30.985916 -0.6666667 0.1000004
906 161.364196777 30.985916 0.0 0.1000004
661 161.502243042 14.788733 1.3333334 0.2000002
662 161.502243042 14.788733 0.6666667 0.2000002
669 161.502243042 12.676056 2.0 0.20000017
668 161.502243042 13.380281 0.6666667 0.20000017
157 161.502243042 7.746479 0.0 0.1000001
158 161.502243042 7.746479 -0.6666667 0.1000001
165 161.502243042 4.9295774 0.0 0.10000006
164 161.502243042 5.633803 -0.6666667 0.100000076
885 161.502243042 26.056337 -0.6666667 3.3060417e-07
886 161.502243042 25.352112 0.0 3.2166892e-07
893 161.502243042 35.915493 -0.6666667 0.100000456
892 161.502243042 35.915493 0.0 0.100000456
381 161.502243042 7.0422535 1.3333334 0.20000009
382 161.502243042 7.0422535 0.6666667 0.20000009
389 161.502243042 21.830986 -1.3333334 2.769927e-07
388 161.502243042 22.535212 -2.0 2.8592794e-07
1142 161.673995972 37.323944 -0.6666667 4.7356812e-07
1143 161.673995972 37.323944 -1.3333334 4.7356812e-07
1150 161.673995972 42.957745 -2.0 0.100000545
1149 161.673995972 42.957745 -1.3333334 0.100000545
638 161.673995972 14.084507 1.3333334 0.10000018
639 161.673995972 14.084507 0.6666667 0.10000018
646 161.673995972 18.309858 1.3333334 0.20000024
645 161.673995972 18.309858 2.0 0.20000024
1499 161.673995972 48.59155 0.0 0.20000061
1500 161.673995972 48.59155 -0.6666667 0.20000061
1507 161.673995972 47.887325 -0.6666667 0.20000061
1506 161.673995972 47.887325 0.0 0.20000061
995 161.673995972 26.760563 2.0 0.100000344
996 161.673995972 26.760563 1.3333334 0.100000344
1003 161.673995972 25.352112 0.6666667 0.10000032
1002 161.673995972 25.352112 1.3333334 0.10000032
1150 161.880889893 42.957745 -2.0 0.100000545
1151 161.880889893 42.25352 0.0 0.10000054
1158 161.880889893 41.549297 -2.0 0.10000053
1157 161.880889893 41.549297 -1.3333334 0.10000053
646 161.880889893 18.309858 1.3333334 0.20000024
647 161.880889893 18.309858 0.6666667 0.20000024
654 161.880889893 16.197184 2.0 0.20000021
653 161.880889893 16.90141 0.6666667 0.20000021
1492 161.880889893 49.295776 0.0 0.20000063
1493 161.880889893 49.295776 -0.6666667 0.20000063
1500 161.880889893 48.59155 -0.6666667 0.20000061
1499 161.880889893 48.59155 0.0 0.20000061
988 161.880889893 28.87324 0.6666667 0.10000037
989 161.880889893 28.169014 2.0 0.10000036
996 161.880889893 26.760563 1.3333334 0.100000344
995 161.880889893 26.760563 2.0 0.100000344
1205 162.129455566 39.43662 -1.3333334 0.20000051
1206 162.129455566 39.43662 -2.0 0.20000051
1213 162.129455566 38.028168 -1.3333334 0.20000048
1212 162.129455566 38.028168 -0.6666667 0.20000048
701 162.129455566 23.239437 2.0 0.1000003
702 162.129455566 23.239437 1.3333334 0.1000003
709 162.129455566 21.830986 0.6666667 0.10000028
708 162.129455566 21.830986 1.3333334 0.10000028
1485 162.129440308 50.0 2.220446e-16 0.20000064
1486 162.129440308 50.0 -0.6666667 0.20000064
1493 162.129440308 49.295776 -0.6666667 0.20000063
1492 162.129440308 49.295776 0.0 0.20000063
981 162.129440308 30.28169 1.3333334 0.10000039
982 162.129440308 30.28169 0.6666667 0.10000039
989 162.129440308 28.169014 2.0 0.10000036
988 162.129440308 28.87324 0.6666667 0.10000037
708 162.393447876 21.830986 1.3333334 0.10000028
709 162.393447876 21.830986 0.6666667 0.10000028
716 162.393447876 19.71831 2.0 0.100000255
715 162.393447876 20.422535 0.6666667 0.10000026
204 162.393447876 4.2253523 -0.6666667 0.20000006
205 162.393447876 3.5211267 0.0 0.20000005
212 162.393447876 1.4084507 -0.6666667 0.20000002
211 162.393447876 1.4084507 0.0 0.20000002
1478 162.393463135 47.887325 -2.0 0.100000605
1479 162.393463135 47.183098 -0.6666667 0.1000006
1486 162.393463135 50.0 -0.6666667 0.20000064
1485 162.393463135 50.0 2.220446e-16 0.20000064
974 162.393463135 25.352112 2.0 3.2166892e-07
975 162.393463135 25.352112 1.3333334 3.2166892e-07
982 162.393463135 30.28169 0.6666667 0.10000039
981 162.393463135 30.28169 1.3333334 0.10000039
715 162.675598145 20.422535 0.6666667 0.10000026
716 162.675598145 19.71831 2.0 0.100000255
723 162.675598145 24.647888 0.6666667 0.20000032
722 162.675598145 24.647888 1.3333334 0.20000032
211 162.675598145 1.4084507 0.0 0.20000002
212 162.675598145 1.4084507 -0.6666667 0.20000002
219 162.675598145 5.633803 2.0 7.1481985e-08
218 162.675598145 6.338028 1.3333334 8.041723e-08
1471 162.675598145 48.59155 -2.0 0.10000062
1472 162.675598145 47.887325 2.0 0.100000605
1479 162.675598145 47.183098 -0.6666667 0.1000006
1478 162.675598145 47.887325 -2.0 0.100000605
967 162.675598145 27.464788 0.6666667 3.4847466e-07
968 162.675598145 26.760563 2.0 3.395394e-07
975 162.675598145 25.352112 1.3333334 3.2166892e-07
974 162.675598145 25.352112 2.0 3.2166892e-07
722 162.952911377 24.647888 1.3333334 0.20000032
723 162.952911377 24.647888 0.6666667 0.20000032
730 162.952911377 22.535212 2.0 0.20000029
729 162.952911377 23.239437 0.6666667 0.2000003
218 162.952911377 6.338028 1.3333334 8.041723e-08
219 162.952911377 5.633803 2.0 7.1481985e-08
226 162.952911377 4.2253523 1.3333334 5.361149e-08
225 162.952911377 4.2253523 2.0 5.361149e-08
608 160.484619141 14.788733 0.6666667 1.876402e-07
609 160.484619141 14.788733 0.0 1.876402e-07
616 160.484619141 12.676056 2.0 1.6083446e-07
615 160.484619141 13.380281 0.6666667 1.697697e-07
104 160.484619141 1.4084507 -2.0 0.20000002
105 160.484619141 0.70422536 -1.3333334 0.20000002
112 160.484619141 11.267606 -0.6666667 1.4296397e-07
111 160.484619141 11.267606 0.0 1.4296397e-07
615 160.453369141 13.380281 0.6666667 1.697697e-07
616 160.453369141 12.676056 2.0 1.6083446e-07
623 160.453369141 17.605635 1.3333334 0.100000225
622 160.453369141 17.605635 2.0 0.100000225
111 160.453369141 11.267606 0.0 1.4296397e-07
112 160.453369141 11.267606 -0.6666667 1.4296397e-07
119 160.453369141 8.450705 0.0 1.0722298e-07
118 160.453369141 9.154929 -0.6666667 1.1615821e-07
1118 159.777694702 41.549297 -0.6666667 5.271796e-07
1119 159.777694702 41.549297 -1.3333334 5.271796e-07
1126 159.777694702 40.140846 -0.6666667 5.0930913e-07
1125 159.777694702 40.140846 0.0 5.0930913e-07
614 159.777694702 13.380281 1.3333334 1.697697e-07
615 159.777694702 13.380281 0.6666667 1.697697e-07
622 159.777694702 17.605635 2.0 0.100000225
621 159.777694702 18.309858 0.6666667 0.10000023
832 160.484619141 31.690142 -1.3333334 0.2000004
833 160.484619141 31.690142 -2.0 0.2000004
840 160.484619141 28.87324 -1.3333334 0.20000038
839 160.484619141 29.577465 -2.0 0.20000038
328 160.484619141 7.0422535 1.3333334 8.9352476e-08
329 160.484619141 7.0422535 0.6666667 8.9352476e-08
336 160.484619141 11.267606 2.0 0.10000014
335 160.484619141 11.971831 0.6666667 0.10000015
1336 159.800521851 43.661972 -1.3333334 5.539854e-07
1337 159.800521851 43.661972 -2.0 5.539854e-07
1344 159.800521851 46.478874 0.6666667 0.10000059
1343 159.800521851 46.478874 1.3333334 0.10000059
832 159.800521851 31.690142 -1.3333334 0.2000004
833 159.800521851 31.690142 -2.0 0.2000004
840 159.800521851 28.87324 -1.3333334 0.20000038
839 159.800521851 29.577465 -2.0 0.20000038
853 160.453369141 25.352112 -2.0 0.20000033
854 160.453369141 36.619717 0.0 4.6463285e-07
861 160.453369141 34.507042 -0.6666667 4.3782714e-07
860 160.453369141 34.507042 0.0 4.3782714e-07
349 160.453369141 8.450705 1.3333334 0.100000106
350 160.453369141 8.450705 0.6666667 0.100000106
357 160.453369141 12.676056 0.6666667 0.20000017
356 160.453369141 7.0422535 0.6666667 0.10000009
1357 159.777694702 45.070423 1.3333334 0.100000575
1358 159.777694702 45.070423 0.6666667 0.100000575
1365 159.777694702 44.366196 0.6666667 0.10000056
1364 159.777694702 44.366196 1.3333334 0.10000056
853 159.777694702 25.352112 -2.0 0.20000033
854 159.777694702 36.619717 0.0 4.6463285e-07
861 159.777694702 34.507042 -0.6666667 4.3782714e-07
860 159.777694702 34.507042 0.0 4.3782714e-07
622 160.434616089 17.605635 2.0 0.100000225
623 160.434616089 17.605635 1.3333334 0.100000225
630 160.434616089 16.197184 0.6666667 0.10000021
629 160.434616089 16.197184 1.3333334 0.10000021
118 160.434616089 9.154929 -0.6666667 1.1615821e-07
119 160.434616089 8.450705 0.0 1.0722298e-07
126 160.434616089 6.338028 -0.6666667 8.041723e-08
125 160.434616089 6.338028 0.0 8.041723e-08
874 160.434616089 29.577465 0.0 3.7528042e-07
875 160.434616089 29.577465 -0.6666667 3.7528042e-07
882 160.434616089 26.760563 0.0 3.395394e-07
881 160.434616089 27.464788 -0.6666667 3.4847466e-07
370 160.434616089 9.859155 0.6666667 0.20000012
371 160.434616089 9.154929 2.0 0.20000012
378 160.434616089 7.746479 1.3333334 0.2000001
377 160.434616089 7.746479 2.0 0.2000001
1125 159.764968872 40.140846 0.0 5.0930913e-07
1126 159.764968872 40.140846 -0.6666667 5.0930913e-07
1133 159.764968872 38.732395 0.0 4.9143864e-07
1132 159.764968872 39.43662 -2.0 5.0037386e-07
621 159.764968872 18.309858 0.6666667 0.10000023
622 159.764968872 17.605635 2.0 0.100000225
629 159.764968872 16.197184 1.3333334 0.10000021
628 159.764968872 16.197184 2.0 0.10000021
1378 159.764968872 47.183098 1.3333334 0.2000006
1379 159.764968872 47.183098 0.6666667 0.2000006
1386 159.764968872 46.478874 -1.3333334 0.2000006
1385 159.764968872 46.478874 -0.6666667 0.2000006
874 159.764968872 29.577465 0.0 3.7528042e-07
875 159.764968872 29.577465 -0.6666667 3.7528042e-07
882 159.764968872 26.760563 0.0 3.395394e-07
881 159.764968872 27.464788 -0.6666667 3.4847466e-07
629 160.427932739 16.197184 1.3333334 0.10000021
630 160.427932739 16.197184 0.6666667 0.10000021
637 160.427932739 14.084507 2.0 0.10000018
636 160.427932739 14.788733 0.6666667 0.10000019
125 160.427932739 6.338028 0.0 8.041723e-08
126 160.427932739 6.338028 -0.6666667 8.041723e-08
133 160.427932739 3.5211267 0.0 4.4676238e-08
132 160.427932739 4.2253523 -0.6666667 5.361149e-08
932 160.427932739 33.09859 -0.6666667 0.20000042
933 160.427932739 32.394367 0.0 0.20000042
940 160.427932739 30.28169 -0.6666667 0.20000039
939 160.427932739 30.28169 0.0 0.20000039
428 160.427932739 21.12676 -2.0 0.10000027
429 160.427932739 20.422535 -1.3333334 0.10000026
436 160.427932739 18.309858 -2.0 0.10000023
435 160.427932739 18.309858 -1.3333334 0.10000023
1132 159.760284424 39.43662 -2.0 5.0037386e-07
1133 159.760284424 38.732395 0.0 4.9143864e-07
1140 159.760284424 38.028168 -2.0 4.8250337e-07
1139 159.760284424 38.028168 -1.3333334 4.8250337e-07
628 159.760284424 16.197184 2.0 0.10000021
629 159.760284424 16.197184 1.3333334 0.10000021
636 159.760284424 14.788733 0.6666667 0.10000019
635 159.760284424 14.788733 1.3333334 0.10000019
1140 159.763320923 38.028168 -2.0 4.8250337e-07
1141 159.763320923 37.323944 0.0 4.7356812e-07
1148 159.763320923 42.957745 -0.6666667 0.100000545
1147 159.763320923 42.957745 0.0 0.100000545
636 159.763320923 14.788733 0.6666667 0.10000019
637 159.763320923 14.084507 2.0 0.10000018
644 159.763320923 12.676056 1.3333334 0.100000165
643 159.763320923 12.676056 2.0 0.100000165
925 160.431518555 35.915493 -0.6666667 0.20000046
926 160.431518555 35.21127 0.0 0.20000045
933 160.431518555 32.394367 0.0 0.20000042
932 160.431518555 33.09859 -0.6666667 0.20000042
421 160.431518555 23.239437 -1.3333334 0.1000003
422 160.431518555 23.239437 -2.0 0.1000003
429 160.431518555 20.422535 -1.3333334 0.10000026
428 160.431518555 21.12676 -2.0 0.10000027
1429 159.763320923 49.295776 -2.0 6.2546735e-07
1430 159.763320923 48.59155 2.0 6.165321e-07
1437 159.763320923 47.887325 2.0 6.0759686e-07
1436 159.763320923 48.59155 -2.0 6.165321e-07
925 159.763320923 35.915493 -0.6666667 0.20000046
926 159.763320923 35.21127 0.0 0.20000045
933 159.763320923 32.394367 0.0 0.20000042
932 159.763320923 33.09859 -0.6666667 0.20000042
695 160.445281982 19.014084 0.6666667 2.4125168e-07
696 160.445281982 24.647888 1.3333334 0.100000314
703 160.445281982 23.239437 0.6666667 0.1000003
702 160.445281982 23.239437 1.3333334 0.1000003
191 160.445281982 8.450705 0.0 0.2000001
192 160.445281982 8.450705 -0.6666667 0.2000001
199 160.445281982 5.633803 0.0 0.20000008
198 160.445281982 6.338028 -0.6666667 0.20000008
1199 159.772583008 40.140846 0.0 0.20000051
1200 159.772583008 40.140846 -0.6666667 0.20000051
1207 159.772583008 38.732395 0.0 0.2000005
1206 159.772583008 39.43662 -2.0 0.20000051
695 159.772583008 19.014084 0.6666667 2.4125168e-07
696 159.772583008 24.647888 1.3333334 0.100000314
703 159.772583008 23.239437 0.6666667 0.1000003
702 159.772583008 23.239437 1.3333334 0.1000003
918 160.445266724 26.056337 0.0 0.10000033
919 160.445266724 26.056337 -0.6666667 0.10000033
926 160.445266724 35.21127 0.0 0.20000045
925 160.445266724 35.915493 -0.6666667 0.20000046
414 160.445266724 13.380281 -2.0 1.697697e-07
415 160.445266724 12.676056 -1.3333334 1.6083446e-07
422 160.445266724 23.239437 -2.0 0.1000003
421 160.445266724 23.239437 -1.3333334 0.1000003
1422 159.772583008 50.0 -2.0 6.3440257e-07
1423 159.772583008 49.295776 2.0 6.2546735e-07
1430 159.772583008 48.59155 2.0 6.165321e-07
1429 159.772583008 49.295776 -2.0 6.2546735e-07
918 159.772583008 26.056337 0.0 0.10000033
919 159.772583008 26.056337 -0.6666667 0.10000033
926 159.772583008 35.21127 0.0 0.20000045
925 159.772583008 35.915493 -0.6666667 0.20000046
1191 160.471221924 41.549297 0.0 0.20000052
1192 160.471221924 41.549297 -0.6666667 0.20000052
1199 160.471221924 40.140846 0.0 0.20000051
1198 160.471221924 40.84507 -2.0 0.20000052
687 160.471221924 20.422535 2.0 2.5912217e-07
688 160.471221924 20.422535 1.3333334 2.5912217e-07
695 160.471221924 19.014084 0.6666667 2.4125168e-07
694 160.471221924 19.014084 1.3333334 2.4125168e-07
911 160.471206665 29.577465 -0.6666667 0.100000374
912 160.471206665 28.87324 0.0 0.10000037
919 160.471206665 26.056337 -0.6666667 0.10000033
918 160.471206665 26.056337 0.0 0.10000033
407 160.471206665 15.492958 -1.3333334 1.9657546e-07
408 160.471206665 15.492958 -2.0 1.9657546e-07
415 160.471206665 12.676056 -1.3333334 1.6083446e-07
414 160.471206665 13.380281 -2.0 1.697697e-07
688 159.791381836 20.422535 1.3333334 2.5912217e-07
689 159.791381836 20.422535 0.6666667 2.5912217e-07
696 159.791381836 24.647888 1.3333334 0.100000314
695 159.791381836 19.014084 0.6666667 2.4125168e-07
184 159.791381836 11.267606 -0.6666667 0.20000015
185 159.791381836 10.56338 0.0 0.20000014
192 159.791381836 8.450705 -0.6666667 0.2000001
191 159.791381836 8.450705 0.0 0.2000001
1415 159.791397095 43.661972 -2.0 0.20000055
1416 159.791397095 50.0 2.0 6.3440257e-07
1423 159.791397095 49.295776 2.0 6.2546735e-07
1422 159.791397095 50.0 -2.0 6.3440257e-07
911 159.791397095 29.577465 -0.6666667 0.100000374
912 159.791397095 28.87324 0.0 0.10000037
919 159.791397095 26.056337 -0.6666667 0.10000033
918 159.791397095 26.056337 0.0 0.10000033
1184 160.509094238 42.957745 -0.6666667 0.20000055
1185 160.509094238 42.957745 -1.3333334 0.20000055
1192 160.509094238 41.549297 -0.6666667 0.20000052
1191 160.509094238 41.549297 0.0 0.20000052
680 160.509094238 22.535212 0.6666667 2.8592794e-07
681 160.509094238 21.830986 2.0 2.769927e-07
688 160.509094238 20.422535 1.3333334 2.5912217e-07
687 160.509094238 20.422535 2.0 2.5912217e-07
904 160.509094238 31.690142 0.0 0.100000404
905 160.509094238 31.690142 -0.6666667 0.100000404
912 160.509094238 28.87324 0.0 0.10000037
911 160.509094238 29.577465 -0.6666667 0.100000374
400 160.509094238 18.309858 -2.0 2.3231642e-07
401 160.509094238 17.605635 -1.3333334 2.233812e-07
408 160.509094238 15.492958 -2.0 1.9657546e-07
407 160.509094238 15.492958 -1.3333334 1.9657546e-07
681 159.818649292 21.830986 2.0 2.769927e-07
682 159.818649292 21.830986 1.3333334 2.769927e-07
689 159.818649292 20.422535 0.6666667 2.5912217e-07
688 159.818649292 20.422535 1.3333334 2.5912217e-07
177 159.818649292 0.70422536 0.0 0.10000001
178 159.818649292 0.70422536 -0.6666667 0.10000001
185 159.818649292 10.56338 0.0 0.20000014
184 159.818649292 11.267606 -0.6666667 0.20000015
1408 159.818649292 44.366196 -2.0 0.20000057
1409 159.818649292 43.661972 2.0 0.20000055
1416 159.818649292 50.0 2.0 6.3440257e-07
1415 159.818649292 43.661972 -2.0 0.20000055
904 159.818649292 31.690142 0.0 0.100000404
905 159.818649292 31.690142 -0.6666667 0.100000404
912 159.818649292 28.87324 0.0 0.10000037
911 159.818649292 29.577465 -0.6666667 0.100000374
1177 160.559783936 38.028168 -1.3333334 0.100000486
1178 160.559783936 38.028168 -2.0 0.100000486
1185 160.559783936 42.957745 -1.3333334 0.20000055
1184 160.559783936 42.957745 -0.6666667 0.20000055
673 160.559783936 23.943663 0.6666667 3.0379843e-07
674 160.559783936 23.943663 0.0 3.0379843e-07
681 160.559783936 21.830986 2.0 2.769927e-07
680 160.559783936 22.535212 0.6666667 2.8592794e-07
1411 160.559783936 43.661972 0.6666667 0.20000055
1412 160.559783936 43.661972 0.0 0.20000055
1419 160.559783936 50.0 -5.551115e-17 6.3440257e-07
1418 160.559783936 50.0 0.6666667 6.3440257e-07
907 160.559783936 30.985916 -0.6666667 0.1000004
908 160.559783936 30.28169 0.0 0.10000039
915 160.559783936 28.169014 -0.6666667 0.10000036
914 160.559783936 28.169014 0.0 0.10000036
897 159.8568573 34.507042 -0.6666667 0.10000044
898 159.8568573 33.80282 0.0 0.100000426
905 159.8568573 31.690142 -0.6666667 0.100000404
904 159.8568573 31.690142 0.0 0.100000404
393 159.8568573 20.422535 -1.3333334 2.5912217e-07
394 159.8568573 20.422535 -2.0 2.5912217e-07
401 159.8568573 17.605635 -1.3333334 2.233812e-07
400 159.8568573 18.309858 -2.0 2.3231642e-07
666 160.622390747 13.380281 2.0 0.20000017
667 160.622390747 13.380281 1.3333334 0.20000017
674 160.622390747 23.943663 0.0 3.0379843e-07
673 160.622390747 23.943663 0.6666667 3.0379843e-07
162 160.622390747 6.338028 -0.6666667 0.10000008
163 160.622390747 5.633803 0.0 0.100000076
170 160.622390747 3.5211267 -0.6666667 0.100000046
169 160.622390747 3.5211267 0.0 0.100000046
1387 160.622375488 46.478874 -2.0 0.2000006
1388 160.622375488 45.774647 2.0 0.20000058
1395 160.622375488 45.070423 2.0 0.20000057
1394 160.622375488 45.774647 -2.0 0.20000058
883 160.622375488 26.760563 -0.6666667 3.395394e-07
884 160.622375488 26.056337 0.0 3.3060417e-07
891 160.622375488 36.619717 -0.6666667 0.10000046
890 160.622375488 36.619717 0.0 0.10000046
1170 159.90246582 39.43662 -2.0 0.1000005
1171 159.90246582 38.732395 0.0 0.10000049
1178 159.90246582 38.028168 -2.0 0.100000486
1177 159.90246582 38.028168 -1.3333334 0.100000486
666 159.90246582 13.380281 2.0 0.20000017
667 159.90246582 13.380281 1.3333334 0.20000017
674 159.90246582 23.943663 0.0 3.0379843e-07
673 159.90246582 23.943663 0.6666667 3.0379843e-07
1173 160.699188232 38.732395 -1.3333334 0.10000049
1174 160.699188232 38.732395 -2.0 0.10000049
1181 160.699188232 37.323944 -1.3333334 0.10000047
1180 160.699188232 37.323944 -0.6666667 0.10000047
669 160.699188232 12.676056 2.0 0.20000017
670 160.699188232 12.676056 1.3333334 0.20000017
677 160.699188232 23.239437 0.6666667 2.9486318e-07
676 160.699188232 23.239437 1.3333334 2.9486318e-07
891 160.699188232 36.619717 -0.6666667 0.10000046
892 160.699188232 35.915493 0.0 0.100000456
899 160.699188232 33.80282 -0.6666667 0.100000426
898 160.699188232 33.80282 0.0 0.100000426
387 160.699188232 22.535212 -1.3333334 2.8592794e-07
388 160.699188232 22.535212 -2.0 2.8592794e-07
395 160.699188232 19.71831 -1.3333334 2.5018693e-07
394 160.699188232 20.422535 -2.0 2.5912217e-07
659 159.959640503 15.492958 0.6666667 0.2000002
660 159.959640503 14.788733 2.0 0.2000002
667 159.959640503 13.380281 1.3333334 0.20000017
666 159.959640503 13.380281 2.0 0.20000017
155 159.959640503 8.450705 0.0 0.100000106
156 159.959640503 8.450705 -0.6666667 0.100000106
163 159.959640503 5.633803 0.0 0.100000076
162 159.959640503 6.338028 -0.6666667 0.10000008
1395 159.959625244 45.070423 2.0 0.20000057
1396 159.959625244 45.070423 1.3333334 0.20000057
1403 159.959625244 44.366196 1.3333334 0.20000057
1402 159.959625244 44.366196 2.0 0.20000057
891 159.959625244 36.619717 -0.6666667 0.10000046
892 159.959625244 35.915493 0.0 0.100000456
899 159.959625244 33.80282 -0.6666667 0.100000426
898 159.959625244 33.80282 0.0 0.100000426
1165 160.786560059 40.140846 -1.3333334 0.10000051
1166 160.786560059 40.140846 -2.0 0.10000051
1173 160.786560059 38.732395 -1.3333334 0.10000049
1172 160.786560059 38.732395 -0.6666667 0.10000049
661 160.786560059 14.788733 1.3333334 0.2000002
662 160.786560059 14.788733 0.6666667 0.2000002
669 160.786560059 12.676056 2.0 0.20000017
668 160.786560059 13.380281 0.6666667 0.20000017
1396 160.786560059 45.070423 1.3333334 0.20000057
1397 160.786560059 45.070423 0.6666667 0.20000057
1404 160.786560059 44.366196 0.6666667 0.20000057
1403 160.786560059 44.366196 1.3333334 0.20000057
892 160.786560059 35.915493 0.0 0.100000456
893 160.786560059 35.915493 -0.6666667 0.100000456
900 160.786560059 33.09859 0.0 0.10000042
899 160.786560059 33.80282 -0.6666667 0.100000426
652 160.020858765 16.90141 1.3333334 0.20000021
653 160.020858765 16.90141 0.6666667 0.20000021
660 160.020858765 14.788733 2.0 0.2000002
659 160.020858765 15.492958 0.6666667 0.2000002
148 160.020858765 11.267606 -0.6666667 0.10000014
149 160.020858765 10.56338 0.0 0.100000136
156 160.020858765 8.450705 -0.6666667 0.100000106
155 160.020858765 8.450705 0.0 0.100000106
1397 160.020858765 45.070423 0.6666667 0.20000057
1398 160.020858765 45.070423 0.0 0.20000057
1405 160.020858765 44.366196 0.0 0.20000057
1404 160.020858765 44.366196 0.6666667 0.20000057
893 160.020858765 35.915493 -0.6666667 0.100000456
894 160.020858765 35.21127 0.0 0.10000045
901 160.020858765 33.09859 -0.6666667 0.10000042
900 160.020858765 33.09859 0.0 0.10000042
653 160.891159058 16.90141 0.6666667 0.20000021
654 160.891159058 16.197184 2.0 0.20000021
661 160.891159058 14.788733 1.3333334 0.2000002
660 160.891159058 14.788733 2.0 0.2000002
149 160.891159058 10.56338 0.0 0.100000136
150 160.891159058 10.56338 -0.6666667 0.100000136
157 160.891159058 7.746479 0.0 0.1000001
156 160.891159058 8.450705 -0.6666667 0.100000106
996 160.891143799 26.760563 1.3333334 0.100000344
997 160.891143799 26.760563 0.6666667 0.100000344
1004 160.891143799 24.647888 2.0 0.100000314
1003 160.891143799 25.352112 0.6666667 0.10000032
492 160.891143799 22.535212 0.0 2.8592794e-07
493 160.891143799 22.535212 -0.6666667 2.8592794e-07
500 160.891143799 19.71831 0.0 2.5018693e-07
499 160.891143799 20.422535 -0.6666667 2.5912217e-07
1500 160.091827393 48.59155 -0.6666667 0.20000061
1501 160.091827393 48.59155 -1.3333334 0.20000061
1508 160.091827393 47.887325 -1.3333334 0.20000061
1507 160.091827393 47.887325 -0.6666667 0.20000061
996 160.091827393 26.760563 1.3333334 0.100000344
997 160.091827393 26.760563 0.6666667 0.100000344
1004 160.091827393 24.647888 2.0 0.100000314
1003 160.091827393 25.352112 0.6666667 0.10000032
1143 161.017700195 37.323944 -1.3333334 4.7356812e-07
1144 161.017700195 37.323944 -2.0 4.7356812e-07
1151 161.017700195 42.25352 0.0 0.10000054
1150 161.017700195 42.957745 -2.0 0.100000545
639 161.017700195 14.084507 0.6666667 0.10000018
640 161.017700195 13.380281 2.0 0.10000017
647 161.017700195 18.309858 0.6666667 0.20000024
646 161.017700195 18.309858 1.3333334 0.20000024
989 161.017700195 28.169014 2.0 0.10000036
990 161.017700195 28.169014 1.3333334 0.10000036
997 161.017700195 26.760563 0.6666667 0.100000344
996 161.017700195 26.760563 1.3333334 0.100000344
485 161.017700195 13.380281 -1.3333334 0.20000017
486 161.017700195 13.380281 -2.0 0.20000017
493 161.017700195 22.535212 -0.6666667 2.8592794e-07
492 161.017700195 22.535212 0.0 2.8592794e-07
1493 160.166732788 49.295776 -0.6666667 0.20000063
1494 160.166732788 49.295776 -1.3333334 0.20000063
1501 160.166732788 48.59155 -1.3333334 0.20000061
1500 160.166732788 48.59155 -0.6666667 0.20000061
989 160.166732788 28.169014 2.0 0.10000036
990 160.166732788 28.169014 1.3333334 0.10000036
997 160.166732788 26.760563 0.6666667 0.100000344
996 160.166732788 26.760563 1.3333334 0.100000344
702 161.184249878 23.239437 1.3333334 0.1000003
703 161.184249878 23.239437 0.6666667 0.1000003
710 161.184249878 21.12676 2.0 0.10000027
709 161.184249878 21.830986 0.6666667 0.10000028
198 161.184249878 6.338028 -0.6666667 0.20000008
199 161.184249878 5.633803 0.0 0.20000008
206 161.184249878 3.5211267 -0.6666667 0.20000005
205 161.184249878 3.5211267 0.0 0.20000005
982 161.184249878 30.28169 0.6666667 0.10000039
983 161.184249878 29.577465 2.0 0.100000374
990 161.184249878 28.169014 1.3333334 0.10000036
989 161.184249878 28.169014 2.0 0.10000036
478 161.184249878 16.197184 -2.0 0.20000021
479 161.184249878 15.492958 -1.3333334 0.2000002
486 161.184249878 13.380281 -2.0 0.20000017
485 161.184249878 13.380281 -1.3333334 0.20000017
1206 160.245727539 39.43662 -2.0 0.20000051
1207 160.245727539 38.732395 0.0 0.2000005
1214 160.245727539 38.028168 -2.0 0.20000048
1213 160.245727539 38.028168 -1.3333334 0.20000048
702 160.245727539 23.239437 1.3333334 0.1000003
703 160.245727539 23.239437 0.6666667 0.1000003
710 160.245727539 21.12676 2.0 0.10000027
709 160.245727539 21.830986 0.6666667 0.10000028
1486 160.245727539 50.0 -0.6666667 0.20000064
1487 160.245727539 50.0 -1.3333334 0.20000064
1494 160.245727539 49.295776 -1.3333334 0.20000063
1493 160.245727539 49.295776 -0.6666667 0.20000063
982 160.245727539 30.28169 0.6666667 0.10000039
983 160.245727539 29.577465 2.0 0.100000374
990 160.245727539 28.169014 1.3333334 0.10000036
989 160.245727539 28.169014 2.0 0.10000036
1212 161.371612549 38.028168 -0.6666667 0.20000048
1213 161.371612549 38.028168 -1.3333334 0.20000048
1220 161.371612549 42.957745 1.3333334 5.450501e-07
1219 161.371612549 42.957745 2.0 5.450501e-07
708 161.371612549 21.830986 1.3333334 0.10000028
709 161.371612549 21.830986 0.6666667 0.10000028
716 161.371612549 19.71831 2.0 0.100000255
715 161.371612549 20.422535 0.6666667 0.10000026
975 161.37159729 25.352112 1.3333334 3.2166892e-07
976 161.37159729 25.352112 0.6666667 3.2166892e-07
983 161.37159729 29.577465 2.0 0.100000374
982 161.37159729 30.28169 0.6666667 0.10000039
471 161.37159729 18.309858 -1.3333334 0.20000024
472 161.37159729 18.309858 -2.0 0.20000024
479 161.37159729 15.492958 -1.3333334 0.2000002
478 161.37159729 16.197184 -2.0 0.20000021
709 160.34992981 21.830986 0.6666667 0.10000028
710 160.34992981 21.12676 2.0 0.10000027
717 160.34992981 19.71831 1.3333334 0.100000255
716 160.34992981 19.71831 2.0 0.100000255
205 160.34992981 3.5211267 0.0 0.20000005
206 160.34992981 3.5211267 -0.6666667 0.20000005
213 160.34992981 0.70422536 0.0 0.20000002
212 160.34992981 1.4084507 -0.6666667 0.20000002
1479 160.34992981 47.183098 -0.6666667 0.1000006
1480 160.34992981 47.183098 -1.3333334 0.1000006
1487 160.34992981 50.0 -1.3333334 0.20000064
1486 160.34992981 50.0 -0.6666667 0.20000064
975 160.34992981 25.352112 1.3333334 3.2166892e-07
976 160.34992981 25.352112 0.6666667 3.2166892e-07
983 160.34992981 29.577465 2.0 0.100000374
982 160.34992981 30.28169 0.6666667 0.10000039
1219 161.575531006 42.957745 2.0 5.450501e-07
1220 161.575531006 42.957745 1.3333334 5.450501e-07
1227 161.575531006 41.549297 0.6666667 5.271796e-07
1226 161.575531006 41.549297 1.3333334 5.271796e-07
715 161.575531006 20.422535 0.6666667 0.10000026
716 161.575531006 19.71831 2.0 0.100000255
723 161.575531006 24.647888 0.6666667 0.20000032
722 161.575531006 24.647888 1.3333334 0.20000032
968 161.575531006 26.760563 2.0 3.395394e-07
969 161.575531006 26.760563 1.3333334 3.395394e-07
976 161.575531006 25.352112 0.6666667 3.2166892e-07
975 161.575531006 25.352112 1.3333334 3.2166892e-07
464 161.575531006 21.12676 -2.0 0.20000027
465 161.575531006 20.422535 -1.3333334 0.20000026
472 161.575531006 18.309858 -2.0 0.20000024
471 161.575531006 18.309858 -1.3333334 0.20000024
716 160.47479248 19.71831 2.0 0.100000255
717 160.47479248 19.71831 1.3333334 0.100000255
724 160.47479248 23.943663 2.0 0.2000003
723 160.47479248 24.647888 0.6666667 0.20000032
212 160.47479248 1.4084507 -0.6666667 0.20000002
213 160.47479248 0.70422536 0.0 0.20000002
220 160.47479248 5.633803 1.3333334 7.1481985e-08
219 160.47479248 5.633803 2.0 7.1481985e-08
1472 160.474777222 47.887325 2.0 0.100000605
1473 160.474777222 47.887325 1.3333334 0.100000605
1480 160.474777222 47.183098 -1.3333334 0.1000006
1479 160.474777222 47.183098 -0.6666667 0.1000006
968 160.474777222 26.760563 2.0 3.395394e-07
969 160.474777222 26.760563 1.3333334 3.395394e-07
976 160.474777222 25.352112 0.6666667 3.2166892e-07
975 160.474777222 25.352112 1.3333334 3.2166892e-07
1226 161.774734497 41.549297 1.3333334 5.271796e-07
1227 161.774734497 41.549297 0.6666667 5.271796e-07
1234 161.774734497 39.43662 2.0 5.0037386e-07
1233 161.774734497 40.140846 0.6666667 5.0930913e-07
722 161.774734497 24.647888 1.3333334 0.20000032
723 161.774734497 24.647888 0.6666667 0.20000032
730 161.774734497 22.535212 2.0 0.20000029
729 161.774734497 23.239437 0.6666667 0.2000003
961 160.597595215 28.87324 0.6666667 3.6634515e-07
962 160.597595215 28.169014 2.0 3.574099e-07
969 160.597595215 26.760563 1.3333334 3.395394e-07
968 160.597595215 26.760563 2.0 3.395394e-07
457 160.597595215 23.239437 -1.3333334 0.2000003
458 160.597595215 23.239437 -2.0 0.2000003
465 160.597595215 20.422535 -1.3333334 0.20000026
464 160.597595215 21.12676 -2.0 0.20000027
723 160.597610474 24.647888 0.6666667 0.20000032
724 160.597610474 23.943663 2.0 0.2000003
731 160.597610474 22.535212 1.3333334 0.20000029
730 160.597610474 22.535212 2.0 0.20000029
219 160.597610474 5.633803 2.0 7.1481985e-08
220 160.597610474 5.633803 1.3333334 7.1481985e-08
227 160.597610474 4.2253523 0.6666667 5.361149e-08
226 160.597610474 4.2253523 1.3333334 5.361149e-08
839 158.912918091 29.577465 -2.0 0.20000038
840 158.912918091 28.87324 -1.3333334 0.20000038
847 158.912918091 26.760563 -0.6666667 0.20000035
846 158.912918091 27.464788 -2.0 0.20000035
335 158.912918091 11.971831 0.6666667 0.10000015
336 158.912918091 11.267606 2.0 0.10000014
343 158.912918091 9.859155 1.3333334 0.10000013
342 158.912918091 9.859155 2.0 0.10000013
1343 158.02557373 46.478874 1.3333334 0.10000059
1344 158.02557373 46.478874 0.6666667 0.10000059
1351 158.02557373 45.774647 0.6666667 0.10000058
1350 158.02557373 45.774647 1.3333334 0.10000058
839 158.02557373 29.577465 -2.0 0.20000038
840 158.02557373 28.87324 -1.3333334 0.20000038
847 158.02557373 26.760563 -0.6666667 0.20000035
846 158.02557373 27.464788 -2.0 0.20000035
1119 158.917404175 41.549297 -1.3333334 5.271796e-07
1120 158.917404175 41.549297 -2.0 5.271796e-07
1127 158.917404175 40.140846 -1.3333334 5.0930913e-07
1126 158.917404175 40.140846 -0.6666667 5.0930913e-07
615 158.917404175 13.380281 0.6666667 1.697697e-07
616 158.917404175 12.676056 2.0 1.6083446e-07
623 158.917404175 17.605635 1.3333334 0.100000225
622 158.917404175 17.605635 2.0 0.100000225
860 158.917419434 34.507042 0.0 4.3782714e-07
861 158.917419434 34.507042 -0.6666667 4.3782714e-07
868 158.917419434 31.690142 0.0 4.0208616e-07
867 158.917419434 32.394367 -0.6666667 4.110214e-07
356 158.917419434 7.0422535 0.6666667 0.10000009
357 158.917419434 12.676056 0.6666667 0.20000017
364 158.917419434 11.267606 0.6666667 0.20000015
363 158.917419434 11.267606 1.3333334 0.20000015
620 158.055664062 18.309858 1.3333334 0.10000023
621 158.055664062 18.309858 0.6666667 0.10000023
628 158.055664062 16.197184 2.0 0.10000021
627 158.055664062 16.90141 0.6666667 0.10000022
116 158.055664062 9.859155 -0.6666667 1.2509346e-07
117 158.055664062 9.154929 0.0 1.1615821e-07
124 158.055664062 7.0422535 -0.6666667 8.9352476e-08
123 158.055664062 7.0422535 0.0 8.9352476e-08
1364 158.055679321 44.366196 1.3333334 0.10000056
1365 158.055679321 44.366196 0.6666667 0.10000056
1372 158.055679321 43.661972 0.6666667 0.10000055
1371 158.055679321 43.661972 1.3333334 0.10000055
860 158.055679321 34.507042 0.0 4.3782714e-07
861 158.055679321 34.507042 -0.6666667 4.3782714e-07
868 158.055679321 31.690142 0.0 4.0208616e-07
867 158.055679321 32.394367 -0.6666667 4.110214e-07
1117 157.136428833 41.549297 0.0 5.271796e-07
1118 157.136428833 41.549297 -0.6666667 5.271796e-07
1125 157.136428833 40.140846 0.0 5.0930913e-07
1124 157.136428833 40.84507 -2.0 5.1824435e-07
613 157.136428833 13.380281 2.0 1.697697e-07
614 157.136428833 13.380281 1.3333334 1.697697e-07
621 157.136428833 18.309858 0.6666667 0.10000023
620 157.136428833 18.309858 1.3333334 0.10000023
846 157.136398315 27.464788 -2.0 0.20000035
847 157.136398315 26.760563 -0.6666667 0.20000035
854 157.136398315 36.619717 0.0 4.6463285e-07
853 157.136398315 25.352112 -2.0 0.20000033
342 157.136398315 9.859155 2.0 0.10000013
343 157.136398315 9.859155 1.3333334 0.10000013
350 157.136398315 8.450705 0.6666667 0.100000106
349 157.136398315 8.450705 1.3333334 0.100000106
1124 157.191772461 40.84507 -2.0 5.1824435e-07
1125 157.191772461 40.140846 0.0 5.0930913e-07
1132 157.191772461 39.43662 -2.0 5.0037386e-07
1131 157.191772461 39.43662 -1.3333334 5.0037386e-07
620 157.191772461 18.309858 1.3333334 0.10000023
621 157.191772461 18.309858 0.6666667 0.10000023
628 157.191772461 16.197184 2.0 0.10000021
627 157.191772461 16.90141 0.6666667 0.10000022
867 157.191802979 32.394367 -0.6666667 4.110214e-07
868 157.191802979 31.690142 0.0 4.0208616e-07
875 157.191802979 29.577465 -0.6666667 3.7528042e-07
874 157.191802979 29.577465 0.0 3.7528042e-07
363 157.191802979 11.267606 1.3333334 0.20000015
364 157.191802979 11.267606 0.6666667 0.20000015
371 157.191802979 9.154929 2.0 0.20000012
370 157.191802979 9.859155 0.6666667 0.20000012
1126 158.922668457 40.140846 -0.6666667 5.0930913e-07
1127 158.922668457 40.140846 -1.3333334 5.0930913e-07
1134 158.922668457 38.732395 -0.6666667 4.9143864e-07
1133 158.922668457 38.732395 0.0 4.9143864e-07
622 158.922668457 17.605635 2.0 0.100000225
623 158.922668457 17.605635 1.3333334 0.100000225
630 158.922668457 16.197184 0.6666667 0.10000021
629 158.922668457 16.197184 1.3333334 0.10000021
881 158.922653198 27.464788 -0.6666667 3.4847466e-07
882 158.922653198 26.760563 0.0 3.395394e-07
889 158.922653198 24.647888 -0.6666667 3.1273368e-07
888 158.922653198 24.647888 0.0 3.1273368e-07
377 158.922653198 7.746479 2.0 0.2000001
378 158.922653198 7.746479 1.3333334 0.2000001
385 158.922653198 23.239437 -1.3333334 2.9486318e-07
384 158.922653198 23.943663 -2.0 3.0379843e-07
627 158.079971313 16.90141 0.6666667 0.10000022
628 158.079971313 16.197184 2.0 0.10000021
635 158.079971313 14.788733 1.3333334 0.10000019
634 158.079971313 14.788733 2.0 0.10000019
123 158.079971313 7.0422535 0.0 8.9352476e-08
124 158.079971313 7.0422535 -0.6666667 8.9352476e-08
131 158.079971313 4.2253523 0.0 5.361149e-08
130 158.079971313 4.9295774 -0.6666667 6.254673e-08
1385 158.079971313 46.478874 -0.6666667 0.2000006
1386 158.079971313 46.478874 -1.3333334 0.2000006
1393 158.079971313 45.774647 -1.3333334 0.20000058
1392 158.079971313 45.774647 -0.6666667 0.20000058
881 158.079971313 27.464788 -0.6666667 3.4847466e-07
882 158.079971313 26.760563 0.0 3.395394e-07
889 158.079971313 24.647888 -0.6666667 3.1273368e-07
888 158.079971313 24.647888 0.0 3.1273368e-07
1131 157.234909058 39.43662 -1.3333334 5.0037386e-07
1132 157.234909058 39.43662 -2.0 5.0037386e-07
1139 157.234909058 38.028168 -1.3333334 4.8250337e-07
1138 157.234909058 38.028168 -0.6666667 4.8250337e-07
627 157.234909058 16.90141 0.6666667 0.10000022
628 157.234909058 16.197184 2.0 0.10000021
635 157.234909058 14.788733 1.3333334 0.10000019
634 157.234909058 14.788733 2.0 0.10000019
940 157.234909058 30.28169 -0.6666667 0.20000039
941 157.234909058 29.577465 0.0 0.20000038
948 157.234909058 26.760563 0.0 0.20000035
947 157.234909058 27.464788 0.0 0.20000035
436 157.234909058 18.309858 -2.0 0.10000023
437 157.234909058 17.605635 -1.3333334 0.100000225
444 157.234909058 15.492958 -2.0 0.100000195
443 157.234909058 15.492958 -1.3333334 0.100000195
1133 158.923217773 38.732395 0.0 4.9143864e-07
1134 158.923217773 38.732395 -0.6666667 4.9143864e-07
1141 158.923217773 37.323944 0.0 4.7356812e-07
1140 158.923217773 38.028168 -2.0 4.8250337e-07
629 158.923217773 16.197184 1.3333334 0.10000021
630 158.923217773 16.197184 0.6666667 0.10000021
637 158.923217773 14.084507 2.0 0.10000018
636 158.923217773 14.788733 0.6666667 0.10000019
1436 159.760253906 48.59155 -2.0 6.165321e-07
1437 159.760253906 47.887325 2.0 6.0759686e-07
1444 159.760253906 47.183098 2.0 5.986616e-07
1443 159.760253906 47.887325 -2.0 6.0759686e-07
932 159.760253906 33.09859 -0.6666667 0.20000042
933 159.760253906 32.394367 0.0 0.20000042
940 159.760253906 30.28169 -0.6666667 0.20000039
939 159.760253906 30.28169 0.0 0.20000039
933 158.923233032 32.394367 0.0 0.20000042
934 158.923233032 32.394367 -0.6666667 0.20000042
941 158.923233032 29.577465 0.0 0.20000038
940 158.923233032 30.28169 -0.6666667 0.20000039
429 158.923233032 20.422535 -1.3333334 0.10000026
430 158.923233032 20.422535 -2.0 0.10000026
437 158.923233032 17.605635 -1.3333334 0.100000225
436 158.923233032 18.309858 -2.0 0.10000023
634 158.084487915 14.788733 2.0 0.10000019
635 158.084487915 14.788733 1.3333334 0.10000019
642 158.084487915 13.380281 0.6666667 0.10000017
641 158.084487915 13.380281 1.3333334 0.10000017
130 158.084487915 4.9295774 -0.6666667 6.254673e-08
131 158.084487915 4.2253523 0.0 5.361149e-08
138 158.084487915 2.1126761 -0.6666667 2.6805743e-08
137 158.084487915 2.1126761 0.0 2.6805743e-08
1437 158.084503174 47.887325 2.0 6.0759686e-07
1438 158.084503174 47.887325 1.3333334 6.0759686e-07
1445 158.084503174 47.183098 1.3333334 5.986616e-07
1444 158.084503174 47.183098 2.0 5.986616e-07
933 158.084503174 32.394367 0.0 0.20000042
934 158.084503174 32.394367 -0.6666667 0.20000042
941 158.084503174 29.577465 0.0 0.20000038
940 158.084503174 30.28169 -0.6666667 0.20000039
635 157.24395752 14.788733 1.3333334 0.10000019
636 157.24395752 14.788733 0.6666667 0.10000019
643 157.24395752 12.676056 2.0 0.100000165
642 157.24395752 13.380281 0.6666667 0.10000017
131 157.24395752 4.2253523 0.0 5.361149e-08
132 157.24395752 4.2253523 -0.6666667 5.361149e-08
139 157.24395752 1.4084507 0.0 1.7870496e-08
138 157.24395752 2.1126761 -0.6666667 2.6805743e-08
934 157.24395752 32.394367 -0.6666667 0.20000042
935 157.24395752 31.690142 0.0 0.2000004
942 157.24395752 29.577465 -0.6666667 0.20000038
941 157.24395752 29.577465 0.0 0.20000038
430 157.24395752 20.422535 -2.0 0.10000026
431 157.24395752 19.71831 -1.3333334 0.100000255
438 157.24395752 17.605635 -2.0 0.100000225
437 157.24395752 17.605635 -1.3333334 0.100000225
642 158.924118042 13.380281 0.6666667 0.10000017
643 158.924118042 12.676056 2.0 0.100000165
650 158.924118042 17.605635 0.6666667 0.20000023
649 158.924118042 17.605635 1.3333334 0.20000023
138 158.924118042 2.1126761 -0.6666667 2.6805743e-08
139 158.924118042 1.4084507 0.0 1.7870496e-08
146 158.924118042 11.971831 -0.6666667 0.10000015
145 158.924118042 11.971831 0.0 0.10000015
926 158.924102783 35.21127 0.0 0.20000045
927 158.924102783 35.21127 -0.6666667 0.20000045
934 158.924102783 32.394367 -0.6666667 0.20000042
933 158.924102783 32.394367 0.0 0.20000042
422 158.924102783 23.239437 -2.0 0.1000003
423 158.924102783 22.535212 -1.3333334 0.100000285
430 158.924102783 20.422535 -2.0 0.10000026
429 158.924102783 20.422535 -1.3333334 0.10000026
643 158.084732056 12.676056 2.0 0.100000165
644 158.084732056 12.676056 1.3333334 0.100000165
651 158.084732056 16.90141 2.0 0.20000021
650 158.084732056 17.605635 0.6666667 0.20000023
139 158.084732056 1.4084507 0.0 1.7870496e-08
140 158.084732056 1.4084507 -0.6666667 1.7870496e-08
147 158.084732056 11.267606 0.0 0.10000014
146 158.084732056 11.971831 -0.6666667 0.10000015
1430 158.084716797 48.59155 2.0 6.165321e-07
1431 158.084716797 48.59155 1.3333334 6.165321e-07
1438 158.084716797 47.887325 1.3333334 6.0759686e-07
1437 158.084716797 47.887325 2.0 6.0759686e-07
926 158.084716797 35.21127 0.0 0.20000045
927 158.084716797 35.21127 -0.6666667 0.20000045
934 158.084716797 32.394367 -0.6666667 0.20000042
933 158.084716797 32.394367 0.0 0.20000042
694 157.243362427 19.014084 1.3333334 2.4125168e-07
695 157.243362427 19.014084 0.6666667 2.4125168e-07
702 157.243362427 23.239437 1.3333334 0.1000003
701 157.243362427 23.239437 2.0 0.1000003
190 157.243362427 9.154929 -0.6666667 0.20000012
191 157.243362427 8.450705 0.0 0.2000001
198 157.243362427 6.338028 -0.6666667 0.20000008
197 157.243362427 6.338028 0.0 0.20000008
927 157.243377686 35.21127 -0.6666667 0.20000045
928 157.243377686 34.507042 0.0 0.20000044
935 157.243377686 31.690142 0.0 0.2000004
934 157.243377686 32.394367 -0.6666667 0.20000042
423 157.243377686 22.535212 -1.3333334 0.100000285
424 157.243377686 22.535212 -2.0 0.100000285
431 157.243377686 19.71831 -1.3333334 0.100000255
430 157.243377686 20.422535 -2.0 0.10000026
696 158.919677734 24.647888 1.3333334 0.100000314
697 158.919677734 24.647888 0.6666667 0.100000314
704 158.919677734 22.535212 2.0 0.100000285
703 158.919677734 23.239437 0.6666667 0.1000003
192 158.919677734 8.450705 -0.6666667 0.2000001
193 158.919677734 7.746479 0.0 0.2000001
200 158.919677734 5.633803 -0.6666667 0.20000008
199 158.919677734 5.633803 0.0 0.20000008
919 158.919677734 26.056337 -0.6666667 0.10000033
920 158.919677734 25.352112 0.0 0.10000032
927 158.919677734 35.21127 -0.6666667 0.20000045
926 158.919677734 35.21127 0.0 0.20000045
415 158.919677734 12.676056 -1.3333334 1.6083446e-07
416 158.919677734 12.676056 -2.0 1.6083446e-07
423 158.919677734 22.535212 -1.3333334 0.100000285
422 158.919677734 23.239437 -2.0 0.1000003
697 158.0652771 24.647888 0.6666667 0.100000314
698 158.0652771 23.943663 2.0 0.10000031
705 158.0652771 22.535212 1.3333334 0.100000285
704 158.0652771 22.535212 2.0 0.100000285
193 158.0652771 7.746479 0.0 0.2000001
194 158.0652771 7.746479 -0.6666667 0.2000001
201 158.0652771 4.9295774 0.0 0.20000006
200 158.0652771 5.633803 -0.6666667 0.20000008
1423 158.0652771 49.295776 2.0 6.2546735e-07
1424 158.0652771 49.295776 1.3333334 6.2546735e-07
1431 158.0652771 48.59155 1.3333334 6.165321e-07
1430 158.0652771 48.59155 2.0 6.165321e-07
919 158.0652771 26.056337 -0.6666667 0.10000033
920 158.0652771 25.352112 0.0 0.10000032
927 158.0652771 35.21127 -0.6666667 0.20000045
926 158.0652771 35.21127 0.0 0.20000045
1200 157.208450317 40.140846 -0.6666667 0.20000051
1201 157.208450317 40.140846 -1.3333334 0.20000051
1208 157.208450317 38.732395 -0.6666667 0.2000005
1207 157.208450317 38.732395 0.0 0.2000005
696 157.208450317 24.647888 1.3333334 0.100000314
697 157.208450317 24.647888 0.6666667 0.100000314
704 157.208450317 22.535212 2.0 0.100000285
703 157.208450317 23.239437 0.6666667 0.1000003
920 157.208465576 25.352112 0.0 0.10000032
921 157.208465576 25.352112 -0.6666667 0.10000032
928 157.208465576 34.507042 0.0 0.20000044
927 157.208465576 35.21127 -0.6666667 0.20000045
416 157.208465576 12.676056 -2.0 1.6083446e-07
417 157.208465576 24.647888 -1.3333334 0.100000314
424 157.208465576 22.535212 -2.0 0.100000285
423 157.208465576 22.535212 -1.3333334 0.100000285
1192 158.916671753 41.549297 -0.6666667 0.20000052
1193 158.916671753 41.549297 -1.3333334 0.20000052
1200 158.916671753 40.140846 -0.6666667 0.20000051
1199 158.916671753 40.140846 0.0 0.20000051
688 158.916671753 20.422535 1.3333334 2.5912217e-07
689 158.916671753 20.422535 0.6666667 2.5912217e-07
696 158.916671753 24.647888 1.3333334 0.100000314
695 158.916671753 19.014084 0.6666667 2.4125168e-07
912 158.916671753 28.87324 0.0 0.10000037
913 158.916671753 28.87324 -0.6666667 0.10000037
920 158.916671753 25.352112 0.0 0.10000032
919 158.916671753 26.056337 -0.6666667 0.10000033
408 158.916671753 15.492958 -2.0 1.9657546e-07
409 158.916671753 14.788733 -1.3333334 1.876402e-07
416 158.916671753 12.676056 -2.0 1.6083446e-07
415 158.916671753 12.676056 -1.3333334 1.6083446e-07
689 158.041915894 20.422535 0.6666667 2.5912217e-07
690 158.041915894 19.71831 2.0 2.5018693e-07
697 158.041915894 24.647888 0.6666667 0.100000314
696 158.041915894 24.647888 1.3333334 0.100000314
185 158.041915894 10.56338 0.0 0.20000014
186 158.041915894 10.56338 -0.6666667 0.20000014
193 158.041915894 7.746479 0.0 0.2000001
192 158.041915894 8.450705 -0.6666667 0.2000001
1416 158.041900635 50.0 2.0 6.3440257e-07
1417 158.041900635 50.0 1.3333334 6.3440257e-07
1424 158.041900635 49.295776 1.3333334 6.2546735e-07
1423 158.041900635 49.295776 2.0 6.2546735e-07
912 158.041900635 28.87324 0.0 0.10000037
913 158.041900635 28.87324 -0.6666667 0.10000037
920 158.041900635 25.352112 0.0 0.10000032
919 158.041900635 26.056337 -0.6666667 0.10000033
1193 157.164642334 41.549297 -1.3333334 0.20000052
1194 157.164642334 41.549297 -2.0 0.20000052
1201 157.164642334 40.140846 -1.3333334 0.20000051
1200 157.164642334 40.140846 -0.6666667 0.20000051
689 157.164642334 20.422535 0.6666667 2.5912217e-07
690 157.164642334 19.71831 2.0 2.5018693e-07
697 157.164642334 24.647888 0.6666667 0.100000314
696 157.164642334 24.647888 1.3333334 0.100000314
913 157.164657593 28.87324 -0.6666667 0.10000037
914 157.164657593 28.169014 0.0 0.10000036
921 157.164657593 25.352112 -0.6666667 0.10000032
920 157.164657593 25.352112 0.0 0.10000032
409 157.164657593 14.788733 -1.3333334 1.876402e-07
410 157.164657593 14.788733 -2.0 1.876402e-07
417 157.164657593 24.647888 -1.3333334 0.100000314
416 157.164657593 12.676056 -2.0 1.6083446e-07
1185 158.907958984 42.957745 -1.3333334 0.20000055
1186 158.907958984 42.957745 -2.0 0.20000055
1193 158.907958984 41.549297 -1.3333334 0.20000052
1192 158.907958984 41.549297 -0.6666667 0.20000052
681 158.907958984 21.830986 2.0 2.769927e-07
682 158.907958984 21.830986 1.3333334 2.769927e-07
689 158.907958984 20.422535 0.6666667 2.5912217e-07
688 158.907958984 20.422535 1.3333334 2.5912217e-07
905 158.907943726 31.690142 -0.6666667 0.100000404
906 158.907943726 30.985916 0.0 0.1000004
913 158.907943726 28.87324 -0.6666667 0.10000037
912 158.907943726 28.87324 0.0 0.10000037
401 158.907943726 17.605635 -1.3333334 2.233812e-07
402 158.907943726 17.605635 -2.0 2.233812e-07
409 158.907943726 14.788733 -1.3333334 1.876402e-07
408 158.907943726 15.492958 -2.0 1.9657546e-07
682 157.996200562 21.830986 1.3333334 2.769927e-07
683 157.996200562 21.830986 0.6666667 2.769927e-07
690 157.996200562 19.71831 2.0 2.5018693e-07
689 157.996200562 20.422535 0.6666667 2.5912217e-07
178 157.996200562 0.70422536 -0.6666667 0.10000001
179 157.996200562 -1.2688052e-09 0.0 0.1
186 157.996200562 10.56338 -0.6666667 0.20000014
185 157.996200562 10.56338 0.0 0.20000014
1409 157.996200562 43.661972 2.0 0.20000055
1410 157.996200562 43.661972 1.3333334 0.20000055
1417 157.996200562 50.0 1.3333334 6.3440257e-07
1416 157.996200562 50.0 2.0 6.3440257e-07
905 157.996200562 31.690142 -0.6666667 0.100000404
906 157.996200562 30.985916 0.0 0.1000004
913 157.996200562 28.87324 -0.6666667 0.10000037
912 157.996200562 28.87324 0.0 0.10000037
1186 157.082275391 42.957745 -2.0 0.20000055
1187 157.082275391 42.25352 0.0 0.20000054
1194 157.082275391 41.549297 -2.0 0.20000052
1193 157.082275391 41.549297 -1.3333334 0.20000052
682 157.082275391 21.830986 1.3333334 2.769927e-07
683 157.082275391 21.830986 0.6666667 2.769927e-07
690 157.082275391 19.71831 2.0 2.5018693e-07
689 157.082275391 20.422535 0.6666667 2.5912217e-07
906 157.082290649 30.985916 0.0 0.1000004
907 157.082290649 30.985916 -0.6666667 0.1000004
914 157.082290649 28.169014 0.0 0.10000036
913 157.082290649 28.87324 -0.6666667 0.10000037
402 157.082290649 17.605635 -2.0 2.233812e-07
403 157.082290649 16.90141 -1.3333334 2.1444595e-07
410 157.082290649 14.788733 -2.0 1.876402e-07
409 157.082290649 14.788733 -1.3333334 1.876402e-07
674 159.8568573 23.943663 0.0 3.0379843e-07
675 159.8568573 23.239437 2.0 2.9486318e-07
682 159.8568573 21.830986 1.3333334 2.769927e-07
681 159.8568573 21.830986 2.0 2.769927e-07
170 159.8568573 3.5211267 -0.6666667 0.100000046
171 159.8568573 2.8169014 0.0 0.10000004
178 159.8568573 0.70422536 -0.6666667 0.10000001
177 159.8568573 0.70422536 0.0 0.10000001
1178 158.902755737 38.028168 -2.0 0.100000486
1179 158.902755737 37.323944 0.0 0.10000047
1186 158.902755737 42.957745 -2.0 0.20000055
1185 158.902755737 42.957745 -1.3333334 0.20000055
674 158.902755737 23.943663 0.0 3.0379843e-07
675 158.902755737 23.239437 2.0 2.9486318e-07
682 158.902755737 21.830986 1.3333334 2.769927e-07
681 158.902755737 21.830986 2.0 2.769927e-07
1401 158.902770996 45.070423 -2.0 0.20000057
1402 158.902770996 44.366196 2.0 0.20000057
1409 158.902770996 43.661972 2.0 0.20000055
1408 158.902770996 44.366196 -2.0 0.20000057
897 158.902770996 34.507042 -0.6666667 0.10000044
898 158.902770996 33.80282 0.0 0.100000426
905 158.902770996 31.690142 -0.6666667 0.100000404
904 158.902770996 31.690142 0.0 0.100000404
675 157.948410034 23.239437 2.0 2.9486318e-07
676 157.948410034 23.239437 1.3333334 2.9486318e-07
683 157.948410034 21.830986 0.6666667 2.769927e-07
682 157.948410034 21.830986 1.3333334 2.769927e-07
171 157.948410034 2.8169014 0.0 0.10000004
172 157.948410034 2.8169014 -0.6666667 0.10000004
179 157.948410034 -1.2688052e-09 0.0 0.1
178 157.948410034 0.70422536 -0.6666667 0.10000001
890 157.948410034 36.619717 0.0 0.10000046
891 157.948410034 36.619717 -0.6666667 0.10000046
898 157.948410034 33.80282 0.0 0.100000426
897 157.948410034 34.507042 -0.6666667 0.10000044
386 157.948410034 23.239437 -2.0 2.9486318e-07
387 157.948410034 22.535212 -1.3333334 2.8592794e-07
394 157.948410034 20.422535 -2.0 2.5912217e-07
393 157.948410034 20.422535 -1.3333334 2.5912217e-07
1179 156.991470337 37.323944 0.0 0.10000047
1180 156.991470337 37.323944 -0.6666667 0.10000047
1187 156.991470337 42.25352 0.0 0.20000054
1186 156.991470337 42.957745 -2.0 0.20000055
675 156.991470337 23.239437 2.0 2.9486318e-07
676 156.991470337 23.239437 1.3333334 2.9486318e-07
683 156.991470337 21.830986 0.6666667 2.769927e-07
682 156.991470337 21.830986 1.3333334 2.769927e-07
1394 156.991470337 45.774647 -2.0 0.20000058
1395 156.991470337 45.070423 2.0 0.20000057
1402 156.991470337 44.366196 2.0 0.20000057
1401 156.991470337 45.070423 -2.0 0.20000057
890 156.991470337 36.619717 0.0 0.10000046
891 156.991470337 36.619717 -0.6666667 0.10000046
898 156.991470337 33.80282 0.0 0.100000426
897 156.991470337 34.507042 -0.6666667 0.10000044
1227 158.952056885 41.549297 0.6666667 5.271796e-07
1228 158.952056885 40.84507 2.0 5.1824435e-07
1235 158.952056885 39.43662 1.3333334 5.0037386e-07
1234 158.952056885 39.43662 2.0 5.0037386e-07
723 158.952056885 24.647888 0.6666667 0.20000032
724 158.952056885 23.943663 2.0 0.2000003
731 158.952056885 22.535212 1.3333334 0.20000029
730 158.952056885 22.535212 2.0 0.20000029
1220 158.875030518 42.957745 1.3333334 5.450501e-07
1221 158.875030518 42.957745 0.6666667 5.450501e-07
1228 158.875030518 40.84507 2.0 5.1824435e-07
1227 158.875030518 41.549297 0.6666667 5.271796e-07
716 158.875030518 19.71831 2.0 0.100000255
717 158.875030518 19.71831 1.3333334 0.100000255
724 158.875030518 23.943663 2.0 0.2000003
723 158.875030518 24.647888 0.6666667 0.20000032
969 158.875015259 26.760563 1.3333334 3.395394e-07
970 158.875015259 26.760563 0.6666667 3.395394e-07
977 158.875015259 24.647888 2.0 3.1273368e-07
976 158.875015259 25.352112 0.6666667 3.2166892e-07
465 158.875015259 20.422535 -1.3333334 0.20000026
466 158.875015259 20.422535 -2.0 0.20000026
473 158.875015259 17.605635 -1.3333334 0.20000023
472 158.875015259 18.309858 -2.0 0.20000024
724 157.042709351 23.943663 2.0 0.2000003
725 157.042709351 23.943663 1.3333334 0.2000003
732 157.042709351 22.535212 0.6666667 0.20000029
731 157.042709351 22.535212 1.3333334 0.20000029
220 157.042709351 5.633803 1.3333334 7.1481985e-08
221 157.042709351 5.633803 0.6666667 7.1481985e-08
228 157.042709351 3.5211267 2.0 4.4676238e-08
227 157.042709351 4.2253523 0.6666667 5.361149e-08
717 157.048751831 19.71831 1.3333334 0.100000255
718 157.048751831 19.71831 0.6666667 0.100000255
725 157.048751831 23.943663 1.3333334 0.2000003
724 157.048751831 23.943663 2.0 0.2000003
213 157.048751831 0.70422536 0.0 0.20000002
214 157.048751831 0.70422536 -0.6666667 0.20000002
221 157.048751831 5.633803 0.6666667 7.1481985e-08
220 157.048751831 5.633803 1.3333334 7.1481985e-08
970 157.04876709 26.760563 0.6666667 3.395394e-07
971 157.04876709 26.056337 2.0 3.3060417e-07
978 157.04876709 24.647888 1.3333334 3.1273368e-07
977 157.04876709 24.647888 2.0 3.1273368e-07
466 157.04876709 20.422535 -2.0 0.20000026
467 157.04876709 19.71831 -1.3333334 0.20000026
474 157.04876709 17.605635 -2.0 0.20000023
473 157.04876709 17.605635 -1.3333334 0.20000023
1213 158.803085327 38.028168 -1.3333334 0.20000048
1214 158.803085327 38.028168 -2.0 0.20000048
1221 158.803085327 42.957745 0.6666667 5.450501e-07
1220 158.803085327 42.957745 1.3333334 5.450501e-07
709 158.803085327 21.830986 0.6666667 0.10000028
710 158.803085327 21.12676 2.0 0.10000027
717 158.803085327 19.71831 1.3333334 0.100000255
716 158.803085327 19.71831 2.0 0.100000255
976 158.803085327 25.352112 0.6666667 3.2166892e-07
977 158.803085327 24.647888 2.0 3.1273368e-07
984 158.803085327 29.577465 1.3333334 0.100000374
983 158.803085327 29.577465 2.0 0.100000374
472 158.803085327 18.309858 -2.0 0.20000024
473 158.803085327 17.605635 -1.3333334 0.20000023
480 158.803085327 15.492958 -2.0 0.2000002
479 158.803085327 15.492958 -1.3333334 0.2000002
710 157.147476196 21.12676 2.0 0.10000027
711 157.147476196 21.12676 1.3333334 0.10000027
718 157.147476196 19.71831 0.6666667 0.100000255
717 157.147476196 19.71831 1.3333334 0.100000255
206 157.147476196 3.5211267 -0.6666667 0.20000005
207 157.147476196 2.8169014 0.0 0.20000003
214 157.147476196 0.70422536 -0.6666667 0.20000002
213 157.147476196 0.70422536 0.0 0.20000002
1480 157.147476196 47.183098 -1.3333334 0.1000006
1481 157.147476196 47.183098 -2.0 0.1000006
1488 157.147476196 50.0 -2.0 0.20000064
1487 157.147476196 50.0 -1.3333334 0.20000064
976 157.147476196 25.352112 0.6666667 3.2166892e-07
977 157.147476196 24.647888 2.0 3.1273368e-07
984 157.147476196 29.577465 1.3333334 0.100000374
983 157.147476196 29.577465 2.0 0.100000374
1228 154.422409058 40.84507 2.0 5.1824435e-07
1229 154.422409058 40.84507 1.3333334 5.1824435e-07
1236 154.422409058 39.43662 0.6666667 5.0037386e-07
1235 154.422409058 39.43662 1.3333334 5.0037386e-07
724 154.422409058 23.943663 2.0 0.2000003
725 154.422409058 23.943663 1.3333334 0.2000003
732 154.422409058 22.535212 0.6666667 0.20000029
731 154.422409058 22.535212 1.3333334 0.20000029
1221 155.202011108 42.957745 0.6666667 5.450501e-07
1222 155.202011108 42.25352 2.0 5.3611484e-07
1229 155.202011108 40.84507 1.3333334 5.1824435e-07
1228 155.202011108 40.84507 2.0 5.1824435e-07
717 155.202011108 19.71831 1.3333334 0.100000255
718 155.202011108 19.71831 0.6666667 0.100000255
725 155.202011108 23.943663 1.3333334 0.2000003
724 155.202011108 23.943663 2.0 0.2000003
1473 155.201965332 47.887325 1.3333334 0.100000605
1474 155.201965332 47.887325 0.6666667 0.100000605
1481 155.201965332 47.183098 -2.0 0.1000006
1480 155.201965332 47.183098 -1.3333334 0.1000006
969 155.201965332 26.760563 1.3333334 3.395394e-07
970 155.201965332 26.760563 0.6666667 3.395394e-07
977 155.201965332 24.647888 2.0 3.1273368e-07
976 155.201965332 25.352112 0.6666667 3.2166892e-07
1214 155.525924683 38.028168 -2.0 0.20000048
1215 155.525924683 37.323944 0.0 0.20000048
1222 155.525924683 42.25352 2.0 5.3611484e-07
1221 155.525924683 42.957745 0.6666667 5.450501e-07
710 155.525924683 21.12676 2.0 0.10000027
711 155.525924683 21.12676 1.3333334 0.10000027
718 155.525924683 19.71831 0.6666667 0.100000255
717 155.525924683 19.71831 1.3333334 0.100000255
967 155.525939941 27.464788 0.6666667 3.4847466e-07
968 155.525939941 26.760563 2.0 3.395394e-07
975 155.525939941 25.352112 1.3333334 3.2166892e-07
974 155.525939941 25.352112 2.0 3.2166892e-07
463 155.525939941 21.12676 -1.3333334 0.20000027
464 155.525939941 21.12676 -2.0 0.20000027
471 155.525939941 18.309858 -1.3333334 0.20000024
470 155.525939941 19.014084 -2.0 0.20000024
703 158.789886475 23.239437 0.6666667 0.1000003
704 158.789886475 22.535212 2.0 0.100000285
711 158.789886475 21.12676 1.3333334 0.10000027
710 158.789886475 21.12676 2.0 0.10000027
199 158.789886475 5.633803 0.0 0.20000008
200 158.789886475 5.633803 -0.6666667 0.20000008
207 158.789886475 2.8169014 0.0 0.20000003
206 158.789886475 3.5211267 -0.6666667 0.20000005
983 158.789871216 29.577465 2.0 0.100000374
984 158.789871216 29.577465 1.3333334 0.100000374
991 158.789871216 28.169014 0.6666667 0.10000036
990 158.789871216 28.169014 1.3333334 0.10000036
479 158.789871216 15.492958 -1.3333334 0.2000002
480 158.789871216 15.492958 -2.0 0.2000002
487 158.789871216 12.676056 -1.3333334 0.20000017
486 158.789871216 13.380281 -2.0 0.20000017
1207 157.302581787 38.732395 0.0 0.2000005
1208 157.302581787 38.732395 -0.6666667 0.2000005
1215 157.302581787 37.323944 0.0 0.20000048
1214 157.302581787 38.028168 -2.0 0.20000048
703 157.302581787 23.239437 0.6666667 0.1000003
704 157.302581787 22.535212 2.0 0.100000285
711 157.302581787 21.12676 1.3333334 0.10000027
710 157.302581787 21.12676 2.0 0.10000027
1487 157.302581787 50.0 -1.3333334 0.20000064
1488 157.302581787 50.0 -2.0 0.20000064
1495 157.302581787 49.295776 -2.0 0.20000063
1494 157.302581787 49.295776 -1.3333334 0.20000063
983 157.302581787 29.577465 2.0 0.100000374
984 157.302581787 29.577465 1.3333334 0.100000374
991 157.302581787 28.169014 0.6666667 0.10000036
990 157.302581787 28.169014 1.3333334 0.10000036
1208 155.823898315 38.732395 -0.6666667 0.2000005
1209 155.823898315 38.732395 -1.3333334 0.2000005
1216 155.823898315 37.323944 -0.6666667 0.20000048
1215 155.823898315 37.323944 0.0 0.20000048
704 155.823898315 22.535212 2.0 0.100000285
705 155.823898315 22.535212 1.3333334 0.100000285
712 155.823898315 21.12676 0.6666667 0.10000027
711 155.823898315 21.12676 1.3333334 0.10000027
974 155.823913574 25.352112 2.0 3.2166892e-07
975 155.823913574 25.352112 1.3333334 3.2166892e-07
982 155.823913574 30.28169 0.6666667 0.10000039
981 155.823913574 30.28169 1.3333334 0.10000039
470 155.823913574 19.014084 -2.0 0.20000024
471 155.823913574 18.309858 -1.3333334 0.20000024
478 155.823913574 16.197184 -2.0 0.20000021
477 155.823913574 16.197184 -1.3333334 0.20000021
647 160.166717529 18.309858 0.6666667 0.20000024
648 160.166717529 17.605635 2.0 0.20000023
655 160.166717529 16.197184 1.3333334 0.20000021
654 160.166717529 16.197184 2.0 0.20000021
143 160.166717529 0.0 0.0 0.0
144 160.166717529 0.0 -0.6666667 0.0
151 160.166717529 9.859155 0.0 0.10000013
150 160.166717529 10.56338 -0.6666667 0.100000136
1151 158.803710938 42.25352 0.0 0.10000054
1152 158.803710938 42.25352 -0.6666667 0.10000054
1159 158.803710938 40.84507 0.0 0.100000516
1158 158.803710938 41.549297 -2.0 0.10000053
647 158.803710938 18.309858 0.6666667 0.20000024
648 158.803710938 17.605635 2.0 0.20000023
655 158.803710938 16.197184 1.3333334 0.20000021
654 158.803710938 16.197184 2.0 0.20000021
990 158.803710938 28.169014 1.3333334 0.10000036
991 158.803710938 28.169014 0.6666667 0.10000036
998 158.803710938 26.056337 2.0 0.10000033
997 158.803710938 26.760563 0.6666667 0.100000344
486 158.803710938 13.380281 -2.0 0.20000017
487 158.803710938 12.676056 -1.3333334 0.20000017
494 158.803710938 21.830986 0.0 2.769927e-07
493 158.803710938 22.535212 -0.6666667 2.8592794e-07
1144 157.443222046 37.323944 -2.0 4.7356812e-07
1145 157.443222046 36.619717 -1.3333334 4.6463285e-07
1152 157.443222046 42.25352 -0.6666667 0.10000054
1151 157.443222046 42.25352 0.0 0.10000054
640 157.443222046 13.380281 2.0 0.10000017
641 157.443222046 13.380281 1.3333334 0.10000017
648 157.443222046 17.605635 2.0 0.20000023
647 157.443222046 18.309858 0.6666667 0.20000024
1494 157.443222046 49.295776 -1.3333334 0.20000063
1495 157.443222046 49.295776 -2.0 0.20000063
1502 157.443222046 48.59155 -2.0 0.20000061
1501 157.443222046 48.59155 -1.3333334 0.20000061
990 157.443222046 28.169014 1.3333334 0.10000036
991 157.443222046 28.169014 0.6666667 0.10000036
998 157.443222046 26.056337 2.0 0.10000033
997 157.443222046 26.760563 0.6666667 0.100000344
701 156.081237793 23.239437 2.0 0.1000003
702 156.081237793 23.239437 1.3333334 0.1000003
709 156.081237793 21.830986 0.6666667 0.10000028
708 156.081237793 21.830986 1.3333334 0.10000028
197 156.081237793 6.338028 0.0 0.20000008
198 156.081237793 6.338028 -0.6666667 0.20000008
205 156.081237793 3.5211267 0.0 0.20000005
204 156.081237793 4.2253523 -0.6666667 0.20000006
981 156.081237793 30.28169 1.3333334 0.10000039
982 156.081237793 30.28169 0.6666667 0.10000039
989 156.081237793 28.169014 2.0 0.10000036
988 156.081237793 28.87324 0.6666667 0.10000037
477 156.081237793 16.197184 -1.3333334 0.20000021
478 156.081237793 16.197184 -2.0 0.20000021
485 156.081237793 13.380281 -1.3333334 0.20000017
484 156.081237793 14.084507 -2.0 0.20000018
1157 160.091812134 41.549297 -1.3333334 0.10000053
1158 160.091812134 41.549297 -2.0 0.10000053
1165 160.091812134 40.140846 -1.3333334 0.10000051
1164 160.091812134 40.140846 -0.6666667 0.10000051
653 160.091812134 16.90141 0.6666667 0.20000021
654 160.091812134 16.197184 2.0 0.20000021
661 160.091812134 14.788733 1.3333334 0.2000002
660 160.091812134 14.788733 2.0 0.2000002
654 158.836914062 16.197184 2.0 0.20000021
655 158.836914062 16.197184 1.3333334 0.20000021
662 158.836914062 14.788733 0.6666667 0.2000002
661 158.836914062 14.788733 1.3333334 0.2000002
150 158.836914062 10.56338 -0.6666667 0.100000136
151 158.836914062 9.859155 0.0 0.10000013
158 158.836914062 7.746479 -0.6666667 0.1000001
157 158.836914062 7.746479 0.0 0.1000001
997 158.836914062 26.760563 0.6666667 0.100000344
998 158.836914062 26.056337 2.0 0.10000033
1005 158.836914062 30.28169 2.0 0.20000039
1004 158.836914062 24.647888 2.0 0.100000314
493 158.836914062 22.535212 -0.6666667 2.8592794e-07
494 158.836914062 21.830986 0.0 2.769927e-07
501 158.836914062 19.71831 -0.6666667 2.5018693e-07
500 158.836914062 19.71831 0.0 2.5018693e-07
1158 157.581451416 41.549297 -2.0 0.10000053
1159 157.581451416 40.84507 0.0 0.100000516
1166 157.581451416 40.140846 -2.0 0.10000051
1165 157.581451416 40.140846 -1.3333334 0.10000051
654 157.581451416 16.197184 2.0 0.20000021
655 157.581451416 16.197184 1.3333334 0.20000021
662 157.581451416 14.788733 0.6666667 0.2000002
661 157.581451416 14.788733 1.3333334 0.2000002
1501 157.581466675 48.59155 -1.3333334 0.20000061
1502 157.581466675 48.59155 -2.0 0.20000061
1509 157.581466675 47.887325 -2.0 0.20000061
1508 157.581466675 47.887325 -1.3333334 0.20000061
997 157.581466675 26.760563 0.6666667 0.100000344
998 157.581466675 26.056337 2.0 0.10000033
1005 157.581466675 30.28169 2.0 0.20000039
1004 157.581466675 24.647888 2.0 0.100000314
646 156.322982788 18.309858 1.3333334 0.20000024
647 156.322982788 18.309858 0.6666667 0.20000024
654 156.322982788 16.197184 2.0 0.20000021
653 156.322982788 16.90141 0.6666667 0.20000021
142 156.322982788 0.70422536 -0.6666667 8.935248e-09
143 156.322982788 0.0 0.0 0.0
150 156.322982788 10.56338 -0.6666667 0.100000136
149 156.322982788 10.56338 0.0 0.100000136
988 156.322982788 28.87324 0.6666667 0.10000037
989 156.322982788 28.169014 2.0 0.10000036
996 156.322982788 26.760563 1.3333334 0.100000344
995 156.322982788 26.760563 2.0 0.100000344
484 156.322982788 14.084507 -2.0 0.20000018
485 156.322982788 13.380281 -1.3333334 0.20000017
492 156.322982788 22.535212 0.0 2.8592794e-07
491 156.322982788 23.239437 -0.6666667 2.9486318e-07
1156 158.856796265 41.549297 -0.6666667 0.10000053
1157 158.856796265 41.549297 -1.3333334 0.10000053
1164 158.856796265 40.140846 -0.6666667 0.10000051
1163 158.856796265 40.140846 0.0 0.10000051
652 158.856796265 16.90141 1.3333334 0.20000021
653 158.856796265 16.90141 0.6666667 0.20000021
660 158.856796265 14.788733 2.0 0.2000002
659 158.856796265 15.492958 0.6666667 0.2000002
1389 158.856796265 45.774647 1.3333334 0.20000058
1390 158.856796265 45.774647 0.6666667 0.20000058
1397 158.856796265 45.070423 0.6666667 0.20000057
1396 158.856796265 45.070423 1.3333334 0.20000057
885 158.856796265 26.056337 -0.6666667 3.3060417e-07
886 158.856796265 25.352112 0.0 3.2166892e-07
893 158.856796265 35.915493 -0.6666667 0.100000456
892 158.856796265 35.915493 0.0 0.100000456
645 157.690505981 18.309858 2.0 0.20000024
646 157.690505981 18.309858 1.3333334 0.20000024
653 157.690505981 16.90141 0.6666667 0.20000021
652 157.690505981 16.90141 1.3333334 0.20000021
141 157.690505981 0.70422536 0.0 8.935248e-09
142 157.690505981 0.70422536 -0.6666667 8.935248e-09
149 157.690505981 10.56338 0.0 0.100000136
148 157.690505981 11.267606 -0.6666667 0.10000014
1382 157.69052124 46.478874 1.3333334 0.2000006
1383 157.69052124 46.478874 0.6666667 0.2000006
1390 157.69052124 45.774647 0.6666667 0.20000058
1389 157.69052124 45.774647 1.3333334 0.20000058
878 157.69052124 28.169014 0.0 3.574099e-07
879 157.69052124 28.169014 -0.6666667 3.574099e-07
886 157.69052124 25.352112 0.0 3.2166892e-07
885 157.69052124 26.056337 -0.6666667 3.3060417e-07
1149 156.523040771 42.957745 -1.3333334 0.100000545
1150 156.523040771 42.957745 -2.0 0.100000545
1157 156.523040771 41.549297 -1.3333334 0.10000053
1156 156.523040771 41.549297 -0.6666667 0.10000053
645 156.523040771 18.309858 2.0 0.20000024
646 156.523040771 18.309858 1.3333334 0.20000024
653 156.523040771 16.90141 0.6666667 0.20000021
652 156.523040771 16.90141 1.3333334 0.20000021
995 156.523040771 26.760563 2.0 0.100000344
996 156.523040771 26.760563 1.3333334 0.100000344
1003 156.523040771 25.352112 0.6666667 0.10000032
1002 156.523040771 25.352112 1.3333334 0.10000032
491 156.523040771 23.239437 -0.6666667 2.9486318e-07
492 156.523040771 22.535212 0.0 2.8592794e-07
499 156.523040771 20.422535 -0.6666667 2.5912217e-07
498 156.523040771 20.422535 0.0 2.5912217e-07
1163 158.879745483 40.140846 0.0 0.10000051
1164 158.879745483 40.140846 -0.6666667 0.10000051
1171 158.879745483 38.732395 0.0 0.10000049
1170 158.879745483 39.43662 -2.0 0.1000005
659 158.879745483 15.492958 0.6666667 0.2000002
660 158.879745483 14.788733 2.0 0.2000002
667 158.879745483 13.380281 1.3333334 0.20000017
666 158.879745483 13.380281 2.0 0.20000017
884 158.879730225 26.056337 0.0 3.3060417e-07
885 158.879730225 26.056337 -0.6666667 3.3060417e-07
892 158.879730225 35.915493 0.0 0.100000456
891 158.879730225 36.619717 -0.6666667 0.10000046
380 158.879730225 7.0422535 2.0 0.20000009
381 158.879730225 7.0422535 1.3333334 0.20000009
388 158.879730225 22.535212 -2.0 2.8592794e-07
387 158.879730225 22.535212 -1.3333334 2.8592794e-07
660 157.798248291 14.788733 2.0 0.2000002
661 157.798248291 14.788733 1.3333334 0.2000002
668 157.798248291 13.380281 0.6666667 0.20000017
667 157.798248291 13.380281 1.3333334 0.20000017
156 157.798248291 8.450705 -0.6666667 0.100000106
157 157.798248291 7.746479 0.0 0.1000001
164 157.798248291 5.633803 -0.6666667 0.100000076
163 157.798248291 5.633803 0.0 0.100000076
1388 157.798233032 45.774647 2.0 0.20000058
1389 157.798233032 45.774647 1.3333334 0.20000058
1396 157.798233032 45.070423 1.3333334 0.20000057
1395 157.798233032 45.070423 2.0 0.20000057
884 157.798233032 26.056337 0.0 3.3060417e-07
885 157.798233032 26.056337 -0.6666667 3.3060417e-07
892 157.798233032 35.915493 0.0 0.100000456
891 157.798233032 36.619717 -0.6666667 0.10000046
1164 156.712738037 40.140846 -0.6666667 0.10000051
1165 156.712738037 40.140846 -1.3333334 0.10000051
1172 156.712738037 38.732395 -0.6666667 0.10000049
1171 156.712738037 38.732395 0.0 0.10000049
660 156.712738037 14.788733 2.0 0.2000002
661 156.712738037 14.788733 1.3333334 0.2000002
668 156.712738037 13.380281 0.6666667 0.20000017
667 156.712738037 13.380281 1.3333334 0.20000017
892 156.71270752 35.915493 0.0 0.100000456
893 156.71270752 35.915493 -0.6666667 0.100000456
900 156.71270752 33.09859 0.0 0.10000042
899 156.71270752 33.80282 -0.6666667 0.100000426
388 156.71270752 22.535212 -2.0 2.8592794e-07
389 156.71270752 21.830986 -1.3333334 2.769927e-07
396 156.71270752 19.71831 -2.0 2.5018693e-07
395 156.71270752 19.71831 -1.3333334 2.5018693e-07
667 158.889953613 13.380281 1.3333334 0.20000017
668 158.889953613 13.380281 0.6666667 0.20000017
675 158.889953613 23.239437 2.0 2.9486318e-07
674 158.889953613 23.943663 0.0 3.0379843e-07
163 158.889953613 5.633803 0.0 0.100000076
164 158.889953613 5.633803 -0.6666667 0.100000076
171 158.889953613 2.8169014 0.0 0.10000004
170 158.889953613 3.5211267 -0.6666667 0.100000046
898 159.902450562 33.80282 0.0 0.100000426
899 159.902450562 33.80282 -0.6666667 0.100000426
906 159.902450562 30.985916 0.0 0.1000004
905 159.902450562 31.690142 -0.6666667 0.100000404
394 159.902450562 20.422535 -2.0 2.5912217e-07
395 159.902450562 19.71831 -1.3333334 2.5018693e-07
402 159.902450562 17.605635 -2.0 2.233812e-07
401 159.902450562 17.605635 -1.3333334 2.233812e-07
1402 158.889968872 44.366196 2.0 0.20000057
1403 158.889968872 44.366196 1.3333334 0.20000057
1410 158.889968872 43.661972 1.3333334 0.20000055
1409 158.889968872 43.661972 2.0 0.20000055
898 158.889968872 33.80282 0.0 0.100000426
899 158.889968872 33.80282 -0.6666667 0.100000426
906 158.889968872 30.985916 0.0 0.1000004
905 158.889968872 31.690142 -0.6666667 0.100000404
1171 157.875289917 38.732395 0.0 0.10000049
1172 157.875289917 38.732395 -0.6666667 0.10000049
1179 157.875289917 37.323944 0.0 0.10000047
1178 157.875289917 38.028168 -2.0 0.100000486
667 157.875289917 13.380281 1.3333334 0.20000017
668 157.875289917 13.380281 0.6666667 0.20000017
675 157.875289917 23.239437 2.0 2.9486318e-07
674 157.875289917 23.943663 0.0 3.0379843e-07
899 157.875289917 33.80282 -0.6666667 0.100000426
900 157.875289917 33.09859 0.0 0.10000042
907 157.875289917 30.985916 -0.6666667 0.1000004
906 157.875289917 30.985916 0.0 0.1000004
395 157.875289917 19.71831 -1.3333334 2.5018693e-07
396 157.875289917 19.71831 -2.0 2.5018693e-07
403 157.875289917 16.90141 -1.3333334 2.1444595e-07
402 157.875289917 17.605635 -2.0 2.233812e-07
668 156.856948853 13.380281 0.6666667 0.20000017
669 156.856948853 12.676056 2.0 0.20000017
676 156.856948853 23.239437 1.3333334 2.9486318e-07
675 156.856948853 23.239437 2.0 2.9486318e-07
164 156.856948853 5.633803 -0.6666667 0.100000076
165 156.856948853 4.9295774 0.0 0.10000006
172 156.856948853 2.8169014 -0.6666667 0.10000004
171 156.856948853 2.8169014 0.0 0.10000004
900 156.856964111 33.09859 0.0 0.10000042
901 156.856964111 33.09859 -0.6666667 0.10000042
908 156.856964111 30.28169 0.0 0.10000039
907 156.856964111 30.985916 -0.6666667 0.1000004
396 156.856964111 19.71831 -2.0 2.5018693e-07
397 156.856964111 19.014084 -1.3333334 2.4125168e-07
404 156.856964111 16.90141 -2.0 2.1444595e-07
403 156.856964111 16.90141 -1.3333334 2.1444595e-07
960 162.952926636 28.87324 1.3333334 3.6634515e-07
961 162.952926636 28.87324 0.6666667 3.6634515e-07
968 162.952926636 26.760563 2.0 3.395394e-07
967 162.952926636 27.464788 0.6666667 3.4847466e-07
456 162.952926636 23.943663 -2.0 0.2000003
457 162.952926636 23.239437 -1.3333334 0.2000003
464 162.952926636 21.12676 -2.0 0.20000027
463 162.952926636 21.12676 -1.3333334 0.20000027
1464 161.774749756 49.295776 -2.0 0.10000063
1465 161.774749756 48.59155 2.0 0.10000062
1472 161.774749756 47.887325 2.0 0.100000605
1471 161.774749756 48.59155 -2.0 0.10000062
960 161.774749756 28.87324 1.3333334 3.6634515e-07
961 161.774749756 28.87324 0.6666667 3.6634515e-07
968 161.774749756 26.760563 2.0 3.395394e-07
967 161.774749756 27.464788 0.6666667 3.4847466e-07
729 163.224121094 23.239437 0.6666667 0.2000003
730 163.224121094 22.535212 2.0 0.20000029
737 163.224121094 21.12676 1.3333334 0.20000027
736 163.224121094 21.12676 2.0 0.20000027
225 163.224121094 4.2253523 2.0 5.361149e-08
226 163.224121094 4.2253523 1.3333334 5.361149e-08
233 163.224121094 2.8169014 0.6666667 3.5740992e-08
232 163.224121094 2.8169014 1.3333334 3.5740992e-08
953 163.224136353 30.28169 2.0 3.8421567e-07
954 163.224136353 30.28169 1.3333334 3.8421567e-07
961 163.224136353 28.87324 0.6666667 3.6634515e-07
960 163.224136353 28.87324 1.3333334 3.6634515e-07
449 163.224136353 13.380281 -1.3333334 0.10000017
450 163.224136353 13.380281 -2.0 0.10000017
457 163.224136353 23.239437 -1.3333334 0.2000003
456 163.224136353 23.943663 -2.0 0.2000003
1233 162.000961304 40.140846 0.6666667 5.0930913e-07
1234 162.000961304 39.43662 2.0 5.0037386e-07
1241 162.000961304 38.028168 1.3333334 4.8250337e-07
1240 162.000961304 38.028168 2.0 4.8250337e-07
729 162.000961304 23.239437 0.6666667 0.2000003
730 162.000961304 22.535212 2.0 0.20000029
737 162.000961304 21.12676 1.3333334 0.20000027
736 162.000961304 21.12676 2.0 0.20000027
1457 162.000961304 50.0 -2.0 0.100000635
1458 162.000961304 49.295776 2.0 0.10000063
1465 162.000961304 48.59155 2.0 0.10000062
1464 162.000961304 49.295776 -2.0 0.10000063
953 162.000961304 30.28169 2.0 3.8421567e-07
954 162.000961304 30.28169 1.3333334 3.8421567e-07
961 162.000961304 28.87324 0.6666667 3.6634515e-07
960 162.000961304 28.87324 1.3333334 3.6634515e-07
939 160.748062134 30.28169 0.0 0.20000039
940 160.748062134 30.28169 -0.6666667 0.20000039
947 160.748062134 27.464788 0.0 0.20000035
946 160.748062134 28.169014 -0.6666667 0.20000036
435 160.748062134 18.309858 -1.3333334 0.10000023
436 160.748062134 18.309858 -2.0 0.10000023
443 160.748062134 15.492958 -1.3333334 0.100000195
442 160.748062134 16.197184 -2.0 0.10000021
736 163.488769531 21.12676 2.0 0.20000027
737 163.488769531 21.12676 1.3333334 0.20000027
744 163.488769531 19.71831 0.6666667 0.20000026
743 163.488769531 19.71831 1.3333334 0.20000026
232 163.488769531 2.8169014 1.3333334 3.5740992e-08
233 163.488769531 2.8169014 0.6666667 3.5740992e-08
240 163.488769531 0.70422536 2.0 8.935248e-09
239 163.488769531 1.4084507 0.6666667 1.7870496e-08
1240 162.250137329 38.028168 2.0 4.8250337e-07
1241 162.250137329 38.028168 1.3333334 4.8250337e-07
1248 162.250137329 36.619717 0.6666667 4.6463285e-07
1247 162.250137329 36.619717 1.3333334 4.6463285e-07
736 162.250137329 21.12676 2.0 0.20000027
737 162.250137329 21.12676 1.3333334 0.20000027
744 162.250137329 19.71831 0.6666667 0.20000026
743 162.250137329 19.71831 1.3333334 0.20000026
954 163.48878479 30.28169 1.3333334 3.8421567e-07
955 163.48878479 30.28169 0.6666667 3.8421567e-07
962 163.48878479 28.169014 2.0 3.574099e-07
961 163.48878479 28.87324 0.6666667 3.6634515e-07
450 163.48878479 13.380281 -2.0 0.10000017
451 163.48878479 12.676056 -1.3333334 0.100000165
458 163.48878479 23.239437 -2.0 0.2000003
457 163.48878479 23.239437 -1.3333334 0.2000003
1458 162.250137329 49.295776 2.0 0.10000063
1459 162.250137329 49.295776 1.3333334 0.10000063
1466 162.250137329 48.59155 1.3333334 0.10000062
1465 162.250137329 48.59155 2.0 0.10000062
954 162.250137329 30.28169 1.3333334 3.8421567e-07
955 162.250137329 30.28169 0.6666667 3.8421567e-07
962 162.250137329 28.169014 2.0 3.574099e-07
961 162.250137329 28.87324 0.6666667 3.6634515e-07
737 160.925201416 21.12676 1.3333334 0.20000027
738 160.925201416 21.12676 0.6666667 0.20000027
745 160.925201416 19.014084 2.0 0.20000024
744 160.925201416 19.71831 0.6666667 0.20000026
233 160.925201416 2.8169014 0.6666667 3.5740992e-08
234 160.925201416 2.1126761 2.0 2.6805743e-08
241 160.925201416 0.70422536 1.3333334 8.935248e-09
240 160.925201416 0.70422536 2.0 8.935248e-09
955 160.925216675 30.28169 0.6666667 3.8421567e-07
956 160.925216675 29.577465 2.0 3.7528042e-07
963 160.925216675 28.169014 1.3333334 3.574099e-07
962 160.925216675 28.169014 2.0 3.574099e-07
451 160.925216675 12.676056 -1.3333334 0.100000165
452 160.925216675 12.676056 -2.0 0.100000165
459 160.925216675 22.535212 -1.3333334 0.20000029
458 160.925216675 23.239437 -2.0 0.2000003
1242 163.808578491 38.028168 0.6666667 4.8250337e-07
1243 163.808578491 37.323944 2.0 4.7356812e-07
1250 163.808578491 42.957745 1.3333334 0.100000545
1249 163.808578491 42.957745 2.0 0.100000545
738 163.808578491 21.12676 0.6666667 0.20000027
739 163.808578491 20.422535 2.0 0.20000026
746 163.808578491 19.014084 1.3333334 0.20000024
745 163.808578491 19.014084 2.0 0.20000024
743 162.559127808 19.71831 1.3333334 0.20000026
744 162.559127808 19.71831 0.6666667 0.20000026
751 162.559127808 35.21127 -2.0 4.467624e-07
750 162.559127808 35.21127 -1.3333334 4.467624e-07
239 162.559127808 1.4084507 0.6666667 1.7870496e-08
240 162.559127808 0.70422536 2.0 8.935248e-09
247 162.559127808 6.338028 1.3333334 0.10000008
246 162.559127808 6.338028 2.0 0.10000008
1451 163.808547974 50.0 2.0 0.100000635
1452 163.808547974 50.0 1.3333334 0.100000635
1459 163.808547974 49.295776 1.3333334 0.10000063
1458 163.808547974 49.295776 2.0 0.10000063
947 163.808547974 27.464788 0.0 0.20000035
948 163.808547974 26.760563 0.0 0.20000035
955 163.808547974 30.28169 0.6666667 3.8421567e-07
954 163.808547974 30.28169 1.3333334 3.8421567e-07
1444 162.559127808 47.183098 2.0 5.986616e-07
1445 162.559127808 47.183098 1.3333334 5.986616e-07
1452 162.559127808 50.0 1.3333334 0.100000635
1451 162.559127808 50.0 2.0 0.100000635
940 162.559127808 30.28169 -0.6666667 0.20000039
941 162.559127808 29.577465 0.0 0.20000038
948 162.559127808 26.760563 0.0 0.20000035
947 162.559127808 27.464788 0.0 0.20000035
1247 161.145263672 36.619717 1.3333334 4.6463285e-07
1248 161.145263672 36.619717 0.6666667 4.6463285e-07
1255 161.145263672 41.549297 2.0 0.10000053
1254 161.145263672 42.25352 0.6666667 0.10000054
743 161.145263672 19.71831 1.3333334 0.20000026
744 161.145263672 19.71831 0.6666667 0.20000026
751 161.145263672 35.21127 -2.0 4.467624e-07
750 161.145263672 35.21127 -1.3333334 4.467624e-07
948 161.145248413 26.760563 0.0 0.20000035
949 161.145248413 26.056337 0.0 0.20000033
956 161.145248413 29.577465 2.0 3.7528042e-07
955 161.145248413 30.28169 0.6666667 3.8421567e-07
444 161.145248413 15.492958 -2.0 0.100000195
445 161.145248413 14.788733 -1.3333334 0.10000019
452 161.145248413 12.676056 -2.0 0.100000165
451 161.145248413 12.676056 -1.3333334 0.100000165
1249 164.170501709 42.957745 2.0 0.100000545
1250 164.170501709 42.957745 1.3333334 0.100000545
1257 164.170501709 41.549297 0.6666667 0.10000053
1256 164.170501709 41.549297 1.3333334 0.10000053
745 164.170501709 19.014084 2.0 0.20000024
746 164.170501709 19.014084 1.3333334 0.20000024
753 164.170501709 34.507042 -2.0 4.3782714e-07
752 164.170501709 34.507042 -1.3333334 4.3782714e-07
750 162.898925781 35.21127 -1.3333334 4.467624e-07
751 162.898925781 35.21127 -2.0 4.467624e-07
758 162.898925781 32.394367 -1.3333334 4.110214e-07
757 162.898925781 33.09859 -2.0 4.1995665e-07
246 162.898925781 6.338028 2.0 0.10000008
247 162.898925781 6.338028 1.3333334 0.10000008
254 162.898925781 4.9295774 0.6666667 0.10000006
253 162.898925781 4.9295774 1.3333334 0.10000006
886 164.170501709 25.352112 0.0 3.2166892e-07
887 164.170501709 25.352112 -0.6666667 3.2166892e-07
894 164.170501709 35.21127 0.0 0.10000045
893 164.170501709 35.915493 -0.6666667 0.100000456
382 164.170501709 7.0422535 0.6666667 0.20000009
383 164.170501709 23.943663 -1.3333334 3.0379843e-07
390 164.170501709 21.830986 -2.0 2.769927e-07
389 164.170501709 21.830986 -1.3333334 2.769927e-07
1390 162.898910522 45.774647 0.6666667 0.20000058
1391 162.898910522 45.774647 0.0 0.20000058
1398 162.898910522 45.070423 0.0 0.20000057
1397 162.898910522 45.070423 0.6666667 0.20000057
886 162.898910522 25.352112 0.0 3.2166892e-07
887 162.898910522 25.352112 -0.6666667 3.2166892e-07
894 162.898910522 35.21127 0.0 0.10000045
893 162.898910522 35.915493 -0.6666667 0.100000456
1254 161.381652832 42.25352 0.6666667 0.10000054
1255 161.381652832 41.549297 2.0 0.10000053
1262 161.381652832 40.140846 1.3333334 0.10000051
1261 161.381652832 40.140846 2.0 0.10000051
750 161.381652832 35.21127 -1.3333334 4.467624e-07
751 161.381652832 35.21127 -2.0 4.467624e-07
758 161.381652832 32.394367 -1.3333334 4.110214e-07
757 161.381652832 33.09859 -2.0 4.1995665e-07
887 161.381668091 25.352112 -0.6666667 3.2166892e-07
888 161.381668091 24.647888 0.0 3.1273368e-07
895 161.381668091 35.21127 -0.6666667 0.10000045
894 161.381668091 35.21127 0.0 0.10000045
383 161.381668091 23.943663 -1.3333334 3.0379843e-07
384 161.381668091 23.943663 -2.0 3.0379843e-07
391 161.381668091 21.12676 -1.3333334 2.6805742e-07
390 161.381668091 21.830986 -2.0 2.769927e-07
1255 164.596542358 41.549297 2.0 0.10000053
1256 164.596542358 41.549297 1.3333334 0.10000053
1263 164.596542358 40.140846 0.6666667 0.10000051
1262 164.596542358 40.140846 1.3333334 0.10000051
751 164.596542358 35.21127 -2.0 4.467624e-07
752 164.596542358 34.507042 -1.3333334 4.3782714e-07
759 164.596542358 32.394367 -2.0 4.110214e-07
758 164.596542358 32.394367 -1.3333334 4.110214e-07
752 163.263671875 34.507042 -1.3333334 4.3782714e-07
753 163.263671875 34.507042 -2.0 4.3782714e-07
760 163.263671875 31.690142 -1.3333334 4.0208616e-07
759 163.263671875 32.394367 -2.0 4.110214e-07
248 163.263671875 6.338028 0.6666667 0.10000008
249 163.263671875 5.633803 2.0 0.100000076
256 163.263671875 4.2253523 1.3333334 0.10000005
255 163.263671875 4.2253523 2.0 0.10000005
1398 164.5965271 45.070423 0.0 0.20000057
1399 164.5965271 45.070423 -0.6666667 0.20000057
1406 164.5965271 44.366196 -0.6666667 0.20000057
1405 164.5965271 44.366196 0.0 0.20000057
894 164.5965271 35.21127 0.0 0.10000045
895 164.5965271 35.21127 -0.6666667 0.10000045
902 164.5965271 32.394367 0.0 0.10000041
901 164.5965271 33.09859 -0.6666667 0.10000042
1404 163.263656616 44.366196 0.6666667 0.20000057
1405 163.263656616 44.366196 0.0 0.20000057
1412 163.263656616 43.661972 0.0 0.20000055
1411 163.263656616 43.661972 0.6666667 0.20000055
900 163.263656616 33.09859 0.0 0.10000042
901 163.263656616 33.09859 -0.6666667 0.10000042
908 163.263656616 30.28169 0.0 0.10000039
907 163.263656616 30.985916 -0.6666667 0.1000004
1256 161.667633057 41.549297 1.3333334 0.10000053
1257 161.667633057 41.549297 0.6666667 0.10000053
1264 161.667633057 39.43662 2.0 0.1000005
1263 161.667633057 40.140846 0.6666667 0.10000051
752 161.667633057 34.507042 -1.3333334 4.3782714e-07
753 161.667633057 34.507042 -2.0 4.3782714e-07
760 161.667633057 31.690142 -1.3333334 4.0208616e-07
759 161.667633057 32.394367 -2.0 4.110214e-07
901 161.667633057 33.09859 -0.6666667 0.10000042
902 161.667633057 32.394367 0.0 0.10000041
909 161.667633057 30.28169 -0.6666667 0.10000039
908 161.667633057 30.28169 0.0 0.10000039
397 161.667633057 19.014084 -1.3333334 2.4125168e-07
398 161.667633057 19.014084 -2.0 2.4125168e-07
405 161.667633057 16.197184 -1.3333334 2.055107e-07
404 161.667633057 16.90141 -2.0 2.1444595e-07
641 165.063796997 13.380281 1.3333334 0.10000017
642 165.063796997 13.380281 0.6666667 0.10000017
649 165.063796997 17.605635 1.3333334 0.20000023
648 165.063796997 17.605635 2.0 0.20000023
137 165.063796997 2.1126761 0.0 2.6805743e-08
138 165.063796997 2.1126761 -0.6666667 2.6805743e-08
145 165.063796997 11.971831 0.0 0.10000015
144 165.063796997 0.0 -0.6666667 0.0
1146 163.626861572 36.619717 -2.0 4.6463285e-07
1147 163.626861572 42.957745 0.0 0.100000545
1154 163.626861572 42.25352 -2.0 0.10000054
1153 163.626861572 42.25352 -1.3333334 0.10000054
642 163.626861572 13.380281 0.6666667 0.10000017
643 163.626861572 12.676056 2.0 0.100000165
650 163.626861572 17.605635 0.6666667 0.20000023
649 163.626861572 17.605635 1.3333334 0.20000023
1412 165.063781738 43.661972 0.0 0.20000055
1413 165.063781738 43.661972 -0.6666667 0.20000055
1420 165.063781738 50.0 -0.6666667 6.3440257e-07
1419 165.063781738 50.0 -5.551115e-17 6.3440257e-07
908 165.063781738 30.28169 0.0 0.10000039
909 165.063781738 30.28169 -0.6666667 0.10000039
916 165.063781738 27.464788 0.0 0.10000035
915 165.063781738 28.169014 -0.6666667 0.10000036
914 163.626861572 28.169014 0.0 0.10000036
915 163.626861572 28.169014 -0.6666667 0.10000036
922 163.626861572 36.619717 0.0 0.20000046
921 163.626861572 25.352112 -0.6666667 0.10000032
410 163.626861572 14.788733 -2.0 1.876402e-07
411 163.626861572 14.084507 -1.3333334 1.7870495e-07
418 163.626861572 24.647888 -2.0 0.100000314
417 163.626861572 24.647888 -1.3333334 0.100000314
648 161.993835449 17.605635 2.0 0.20000023
649 161.993835449 17.605635 1.3333334 0.20000023
656 161.993835449 16.197184 0.6666667 0.20000021
655 161.993835449 16.197184 1.3333334 0.20000021
144 161.993835449 0.0 -0.6666667 0.0
145 161.993835449 11.971831 0.0 0.10000015
152 161.993835449 9.859155 -0.6666667 0.10000013
151 161.993835449 9.859155 0.0 0.10000013
1418 161.993850708 50.0 0.6666667 6.3440257e-07
1419 161.993850708 50.0 -5.551115e-17 6.3440257e-07
1426 161.993850708 49.295776 0.0 6.2546735e-07
1425 161.993850708 49.295776 0.6666667 6.2546735e-07
914 161.993850708 28.169014 0.0 0.10000036
915 161.993850708 28.169014 -0.6666667 0.10000036
922 161.993850708 36.619717 0.0 0.20000046
921 161.993850708 25.352112 -0.6666667 0.10000032
655 165.544754028 16.197184 1.3333334 0.20000021
656 165.544754028 16.197184 0.6666667 0.20000021
663 165.544754028 14.084507 2.0 0.20000018
662 165.544754028 14.788733 0.6666667 0.2000002
151 165.544754028 9.859155 0.0 0.10000013
152 165.544754028 9.859155 -0.6666667 0.10000013
159 165.544754028 7.0422535 0.0 0.10000009
158 165.544754028 7.746479 -0.6666667 0.1000001
1159 164.037994385 40.84507 0.0 0.100000516
1160 164.037994385 40.84507 -0.6666667 0.100000516
1167 164.037994385 39.43662 0.0 0.1000005
1166 164.037994385 40.140846 -2.0 0.10000051
655 164.037994385 16.197184 1.3333334 0.20000021
656 164.037994385 16.197184 0.6666667 0.20000021
663 164.037994385 14.084507 2.0 0.20000018
662 164.037994385 14.788733 0.6666667 0.2000002
1425 165.544754028 49.295776 0.6666667 6.2546735e-07
1426 165.544754028 49.295776 0.0 6.2546735e-07
1433 165.544754028 48.59155 0.0 6.165321e-07
1432 165.544754028 48.59155 0.6666667 6.165321e-07
921 165.544754028 25.352112 -0.6666667 0.10000032
922 165.544754028 36.619717 0.0 0.20000046
929 165.544754028 34.507042 -0.6666667 0.20000044
928 165.544754028 34.507042 0.0 0.20000044
922 164.038009644 36.619717 0.0 0.20000046
923 164.038009644 36.619717 -0.6666667 0.20000046
930 164.038009644 33.80282 0.0 0.20000044
929 164.038009644 34.507042 -0.6666667 0.20000044
418 164.038009644 24.647888 -2.0 0.100000314
419 164.038009644 23.943663 -1.3333334 0.10000031
426 164.038009644 21.830986 -2.0 0.10000028
425 164.038009644 21.830986 -1.3333334 0.10000028
656 162.374542236 16.197184 0.6666667 0.20000021
657 162.374542236 15.492958 2.0 0.2000002
664 162.374542236 14.084507 1.3333334 0.20000018
663 162.374542236 14.084507 2.0 0.20000018
152 162.374542236 9.859155 -0.6666667 0.10000013
153 162.374542236 9.154929 0.0 0.10000012
160 162.374542236 7.0422535 -0.6666667 0.10000009
159 162.374542236 7.0422535 0.0 0.10000009
1426 162.374526978 49.295776 0.0 6.2546735e-07
1427 162.374526978 49.295776 -0.6666667 6.2546735e-07
1434 162.374526978 48.59155 -0.6666667 6.165321e-07
1433 162.374526978 48.59155 0.0 6.165321e-07
922 162.374526978 36.619717 0.0 0.20000046
923 162.374526978 36.619717 -0.6666667 0.20000046
930 162.374526978 33.80282 0.0 0.20000044
929 162.374526978 34.507042 -0.6666667 0.20000044
663 166.058242798 14.084507 2.0 0.20000018
664 166.058242798 14.084507 1.3333334 0.20000018
671 166.058242798 23.943663 2.0 3.0379843e-07
670 166.058242798 12.676056 1.3333334 0.20000017
159 166.058242798 7.0422535 0.0 0.10000009
160 166.058242798 7.0422535 -0.6666667 0.10000009
167 166.058242798 4.2253523 0.0 0.10000005
166 166.058242798 4.9295774 -0.6666667 0.10000006
1167 164.474502563 39.43662 0.0 0.1000005
1168 164.474502563 39.43662 -0.6666667 0.1000005
1175 164.474502563 38.028168 0.0 0.100000486
1174 164.474502563 38.732395 -2.0 0.10000049
663 164.474502563 14.084507 2.0 0.20000018
664 164.474502563 14.084507 1.3333334 0.20000018
671 164.474502563 23.943663 2.0 3.0379843e-07
670 164.474502563 12.676056 1.3333334 0.20000017
1433 166.058242798 48.59155 0.0 6.165321e-07
1434 166.058242798 48.59155 -0.6666667 6.165321e-07
1441 166.058242798 47.887325 -0.6666667 6.0759686e-07
1440 166.058242798 47.887325 0.0 6.0759686e-07
929 166.058242798 34.507042 -0.6666667 0.20000044
930 166.058242798 33.80282 0.0 0.20000044
937 166.058242798 30.985916 0.0 0.20000039
936 166.058242798 31.690142 -0.6666667 0.2000004
935 164.474502563 31.690142 0.0 0.2000004
936 164.474502563 31.690142 -0.6666667 0.2000004
943 164.474502563 28.87324 0.0 0.20000038
942 164.474502563 29.577465 -0.6666667 0.20000038
431 164.474502563 19.71831 -1.3333334 0.100000255
432 164.474502563 19.71831 -2.0 0.100000255
439 164.474502563 16.90141 -1.3333334 0.10000022
438 164.474502563 17.605635 -2.0 0.100000225
669 162.781036377 12.676056 2.0 0.20000017
670 162.781036377 12.676056 1.3333334 0.20000017
677 162.781036377 23.239437 0.6666667 2.9486318e-07
676 162.781036377 23.239437 1.3333334 2.9486318e-07
165 162.781036377 4.9295774 0.0 0.10000006
166 162.781036377 4.9295774 -0.6666667 0.10000006
173 162.781036377 2.1126761 0.0 0.10000003
172 162.781036377 2.8169014 -0.6666667 0.10000004
1439 162.781036377 47.887325 0.6666667 6.0759686e-07
1440 162.781036377 47.887325 0.0 6.0759686e-07
1447 162.781036377 47.183098 0.0 5.986616e-07
1446 162.781036377 47.183098 0.6666667 5.986616e-07
935 162.781036377 31.690142 0.0 0.2000004
936 162.781036377 31.690142 -0.6666667 0.2000004
943 162.781036377 28.87324 0.0 0.20000038
942 162.781036377 29.577465 -0.6666667 0.20000038
677 166.55871582 23.239437 0.6666667 2.9486318e-07
678 166.55871582 22.535212 2.0 2.8592794e-07
685 166.55871582 21.12676 1.3333334 2.6805742e-07
684 166.55871582 21.12676 2.0 2.6805742e-07
173 166.55871582 2.1126761 0.0 0.10000003
174 166.55871582 2.1126761 -0.6666667 0.10000003
181 166.55871582 11.971831 0.0 0.20000015
180 166.55871582 -1.2688052e-09 -0.6666667 0.1
1181 164.925415039 37.323944 -1.3333334 0.10000047
1182 164.925415039 37.323944 -2.0 0.10000047
1189 164.925415039 42.25352 -1.3333334 0.20000054
1188 164.925415039 42.25352 -0.6666667 0.20000054
677 164.925415039 23.239437 0.6666667 2.9486318e-07
678 164.925415039 22.535212 2.0 2.8592794e-07
685 164.925415039 21.12676 1.3333334 2.6805742e-07
684 164.925415039 21.12676 2.0 2.6805742e-07
943 166.558731079 28.87324 0.0 0.20000038
944 166.558731079 28.87324 -0.6666667 0.20000038
951 166.558731079 25.352112 0.0 0.20000033
950 166.558731079 26.056337 -0.6666667 0.20000033
439 166.558731079 16.90141 -1.3333334 0.10000022
440 166.558731079 16.90141 -2.0 0.10000022
447 166.558731079 14.084507 -1.3333334 0.10000018
446 166.558731079 14.788733 -2.0 0.10000019
949 163.15296936 26.056337 0.0 0.20000033
950 163.15296936 26.056337 -0.6666667 0.20000033
957 163.15296936 29.577465 1.3333334 3.7528042e-07
956 163.15296936 29.577465 2.0 3.7528042e-07
445 163.15296936 14.788733 -1.3333334 0.10000019
446 163.15296936 14.788733 -2.0 0.10000019
453 163.15296936 24.647888 -1.3333334 0.20000032
452 163.15296936 12.676056 -2.0 0.100000165
683 163.152984619 21.830986 0.6666667 2.769927e-07
684 163.152984619 21.12676 2.0 2.6805742e-07
691 163.152984619 19.71831 1.3333334 2.5018693e-07
690 163.152984619 19.71831 2.0 2.5018693e-07
179 163.152984619 -1.2688052e-09 0.0 0.1
180 163.152984619 -1.2688052e-09 -0.6666667 0.1
187 163.152984619 9.859155 0.0 0.20000012
186 163.152984619 10.56338 -0.6666667 0.20000014
1465 158.952056885 48.59155 2.0 0.10000062
1466 158.952056885 48.59155 1.3333334 0.10000062
1473 158.952056885 47.887325 1.3333334 0.100000605
1472 158.952056885 47.887325 2.0 0.100000605
961 158.952056885 28.87324 0.6666667 3.6634515e-07
962 158.952056885 28.169014 2.0 3.574099e-07
969 158.952056885 26.760563 1.3333334 3.395394e-07
968 158.952056885 26.760563 2.0 3.395394e-07
962 157.042724609 28.169014 2.0 3.574099e-07
963 157.042724609 28.169014 1.3333334 3.574099e-07
970 157.042724609 26.760563 0.6666667 3.395394e-07
969 157.042724609 26.760563 1.3333334 3.395394e-07
458 157.042724609 23.239437 -2.0 0.2000003
459 157.042724609 22.535212 -1.3333334 0.20000029
466 157.042724609 20.422535 -2.0 0.20000026
465 157.042724609 20.422535 -1.3333334 0.20000026
730 160.748077393 22.535212 2.0 0.20000029
731 160.748077393 22.535212 1.3333334 0.20000029
738 160.748077393 21.12676 0.6666667 0.20000027
737 160.748077393 21.12676 1.3333334 0.20000027
226 160.748077393 4.2253523 1.3333334 5.361149e-08
227 160.748077393 4.2253523 0.6666667 5.361149e-08
234 160.748077393 2.1126761 2.0 2.6805743e-08
233 160.748077393 2.8169014 0.6666667 3.5740992e-08
1234 159.095703125 39.43662 2.0 5.0037386e-07
1235 159.095703125 39.43662 1.3333334 5.0037386e-07
1242 159.095703125 38.028168 0.6666667 4.8250337e-07
1241 159.095703125 38.028168 1.3333334 4.8250337e-07
730 159.095703125 22.535212 2.0 0.20000029
731 159.095703125 22.535212 1.3333334 0.20000029
738 159.095703125 21.12676 0.6666667 0.20000027
737 159.095703125 21.12676 1.3333334 0.20000027
946 159.095687866 28.169014 -0.6666667 0.20000036
947 159.095687866 27.464788 0.0 0.20000035
954 159.095687866 30.28169 1.3333334 3.8421567e-07
953 159.095687866 30.28169 2.0 3.8421567e-07
442 159.095687866 16.197184 -2.0 0.10000021
443 159.095687866 15.492958 -1.3333334 0.100000195
450 159.095687866 13.380281 -2.0 0.10000017
449 159.095687866 13.380281 -1.3333334 0.10000017
731 157.088562012 22.535212 1.3333334 0.20000029
732 157.088562012 22.535212 0.6666667 0.20000029
739 157.088562012 20.422535 2.0 0.20000026
738 157.088562012 21.12676 0.6666667 0.20000027
227 157.088562012 4.2253523 0.6666667 5.361149e-08
228 157.088562012 3.5211267 2.0 4.4676238e-08
235 157.088562012 2.1126761 1.3333334 2.6805743e-08
234 157.088562012 2.1126761 2.0 2.6805743e-08
1450 157.088546753 47.183098 -2.0 5.986616e-07
1451 157.088546753 50.0 2.0 0.100000635
1458 157.088546753 49.295776 2.0 0.10000063
1457 157.088546753 50.0 -2.0 0.100000635
946 157.088546753 28.169014 -0.6666667 0.20000036
947 157.088546753 27.464788 0.0 0.20000035
954 157.088546753 30.28169 1.3333334 3.8421567e-07
953 157.088546753 30.28169 2.0 3.8421567e-07
1466 154.422470093 48.59155 1.3333334 0.10000062
1467 154.422470093 48.59155 0.6666667 0.10000062
1474 154.422470093 47.887325 0.6666667 0.100000605
1473 154.422470093 47.887325 1.3333334 0.100000605
962 154.422470093 28.169014 2.0 3.574099e-07
963 154.422470093 28.169014 1.3333334 3.574099e-07
970 154.422470093 26.760563 0.6666667 3.395394e-07
969 154.422470093 26.760563 1.3333334 3.395394e-07
1235 153.445251465 39.43662 1.3333334 5.0037386e-07
1236 153.445251465 39.43662 0.6666667 5.0037386e-07
1243 153.445251465 37.323944 2.0 4.7356812e-07
1242 153.445251465 38.028168 0.6666667 4.8250337e-07
731 153.445251465 22.535212 1.3333334 0.20000029
732 153.445251465 22.535212 0.6666667 0.20000029
739 153.445251465 20.422535 2.0 0.20000026
738 153.445251465 21.12676 0.6666667 0.20000027
1443 153.445205688 47.887325 -2.0 6.0759686e-07
1444 153.445205688 47.183098 2.0 5.986616e-07
1451 153.445205688 50.0 2.0 0.100000635
1450 153.445205688 47.183098 -2.0 5.986616e-07
939 153.445205688 30.28169 0.0 0.20000039
940 153.445205688 30.28169 -0.6666667 0.20000039
947 153.445205688 27.464788 0.0 0.20000035
946 153.445205688 28.169014 -0.6666667 0.20000036
1241 159.269363403 38.028168 1.3333334 4.8250337e-07
1242 159.269363403 38.028168 0.6666667 4.8250337e-07
1249 159.269363403 42.957745 2.0 0.100000545
1248 159.269363403 36.619717 0.6666667 4.6463285e-07
737 159.269363403 21.12676 1.3333334 0.20000027
738 159.269363403 21.12676 0.6666667 0.20000027
745 159.269363403 19.014084 2.0 0.20000024
744 159.269363403 19.71831 0.6666667 0.20000026
1459 159.269363403 49.295776 1.3333334 0.10000063
1460 159.269363403 49.295776 0.6666667 0.10000063
1467 159.269363403 48.59155 0.6666667 0.10000062
1466 159.269363403 48.59155 1.3333334 0.10000062
955 159.269363403 30.28169 0.6666667 3.8421567e-07
956 159.269363403 29.577465 2.0 3.7528042e-07
963 159.269363403 28.169014 1.3333334 3.574099e-07
962 159.269363403 28.169014 2.0 3.574099e-07
738 157.142150879 21.12676 0.6666667 0.20000027
739 157.142150879 20.422535 2.0 0.20000026
746 157.142150879 19.014084 1.3333334 0.20000024
745 157.142150879 19.014084 2.0 0.20000024
234 157.142150879 2.1126761 2.0 2.6805743e-08
235 157.142150879 2.1126761 1.3333334 2.6805743e-08
242 157.142150879 0.70422536 0.6666667 8.935248e-09
241 157.142150879 0.70422536 1.3333334 8.935248e-09
1460 157.14213562 49.295776 0.6666667 0.10000063
1461 157.14213562 49.295776 0.0 0.10000063
1468 157.14213562 48.59155 0.0 0.10000062
1467 157.14213562 48.59155 0.6666667 0.10000062
956 157.14213562 29.577465 2.0 3.7528042e-07
957 157.14213562 29.577465 1.3333334 3.7528042e-07
964 157.14213562 28.169014 0.6666667 3.574099e-07
963 157.14213562 28.169014 1.3333334 3.574099e-07
739 152.693786621 20.422535 2.0 0.20000026
740 152.693786621 20.422535 1.3333334 0.20000026
747 152.693786621 19.014084 0.6666667 0.20000024
746 152.693786621 19.014084 1.3333334 0.20000024
235 152.693786621 2.1126761 1.3333334 2.6805743e-08
236 152.693786621 2.1126761 0.6666667 2.6805743e-08
243 152.693786621 0.0 2.0 0.0
242 152.693786621 0.70422536 0.6666667 8.935248e-09
947 152.693756104 27.464788 0.0 0.20000035
948 152.693756104 26.760563 0.0 0.20000035
955 152.693756104 30.28169 0.6666667 3.8421567e-07
954 152.693756104 30.28169 1.3333334 3.8421567e-07
443 152.693756104 15.492958 -1.3333334 0.100000195
444 152.693756104 15.492958 -2.0 0.100000195
451 152.693756104 12.676056 -1.3333334 0.100000165
450 152.693756104 13.380281 -2.0 0.10000017
744 159.479797363 19.71831 0.6666667 0.20000026
745 159.479797363 19.014084 2.0 0.20000024
752 159.479797363 34.507042 -1.3333334 4.3782714e-07
751 159.479797363 35.21127 -2.0 4.467624e-07
240 159.479797363 0.70422536 2.0 8.935248e-09
241 159.479797363 0.70422536 1.3333334 8.935248e-09
248 159.479797363 6.338028 0.6666667 0.10000008
247 159.479797363 6.338028 1.3333334 0.10000008
942 159.479797363 29.577465 -0.6666667 0.20000038
943 159.479797363 28.87324 0.0 0.20000038
950 159.479797363 26.056337 -0.6666667 0.20000033
949 159.479797363 26.056337 0.0 0.20000033
438 159.479797363 17.605635 -2.0 0.100000225
439 159.479797363 16.90141 -1.3333334 0.10000022
446 159.479797363 14.788733 -2.0 0.10000019
445 159.479797363 14.788733 -1.3333334 0.10000019
1248 157.195327759 36.619717 0.6666667 4.6463285e-07
1249 157.195327759 42.957745 2.0 0.100000545
1256 157.195327759 41.549297 1.3333334 0.10000053
1255 157.195327759 41.549297 2.0 0.10000053
744 157.195327759 19.71831 0.6666667 0.20000026
745 157.195327759 19.014084 2.0 0.20000024
752 157.195327759 34.507042 -1.3333334 4.3782714e-07
751 157.195327759 35.21127 -2.0 4.467624e-07
1452 157.195327759 50.0 1.3333334 0.100000635
1453 157.195327759 50.0 0.6666667 0.100000635
1460 157.195327759 49.295776 0.6666667 0.10000063
1459 157.195327759 49.295776 1.3333334 0.10000063
948 157.195327759 26.760563 0.0 0.20000035
949 157.195327759 26.056337 0.0 0.20000033
956 157.195327759 29.577465 2.0 3.7528042e-07
955 157.195327759 30.28169 0.6666667 3.8421567e-07
745 151.321548462 19.014084 2.0 0.20000024
746 151.321548462 19.014084 1.3333334 0.20000024
753 151.321548462 34.507042 -2.0 4.3782714e-07
752 151.321548462 34.507042 -1.3333334 4.3782714e-07
241 151.321548462 0.70422536 1.3333334 8.935248e-09
242 151.321548462 0.70422536 0.6666667 8.935248e-09
249 151.321548462 5.633803 2.0 0.100000076
248 151.321548462 6.338028 0.6666667 0.10000008
1445 151.321487427 47.183098 1.3333334 5.986616e-07
1446 151.321487427 47.183098 0.6666667 5.986616e-07
1453 151.321487427 50.0 0.6666667 0.100000635
1452 151.321487427 50.0 1.3333334 0.100000635
941 151.321487427 29.577465 0.0 0.20000038
942 151.321487427 29.577465 -0.6666667 0.20000038
949 151.321487427 26.056337 0.0 0.20000033
948 151.321487427 26.760563 0.0 0.20000035
757 159.702682495 33.09859 -2.0 4.1995665e-07
758 159.702682495 32.394367 -1.3333334 4.110214e-07
765 159.702682495 30.28169 -2.0 3.8421567e-07
764 159.702682495 30.28169 -1.3333334 3.8421567e-07
253 159.702682495 4.9295774 1.3333334 0.10000006
254 159.702682495 4.9295774 0.6666667 0.10000006
261 159.702682495 2.8169014 2.0 0.10000004
260 159.702682495 3.5211267 0.6666667 0.100000046
1391 159.702682495 45.774647 0.0 0.20000058
1392 159.702682495 45.774647 -0.6666667 0.20000058
1399 159.702682495 45.070423 -0.6666667 0.20000057
1398 159.702682495 45.070423 0.0 0.20000057
887 159.702682495 25.352112 -0.6666667 3.2166892e-07
888 159.702682495 24.647888 0.0 3.1273368e-07
895 159.702682495 35.21127 -0.6666667 0.10000045
894 159.702682495 35.21127 0.0 0.10000045
1261 157.26953125 40.140846 2.0 0.10000051
1262 157.26953125 40.140846 1.3333334 0.10000051
1269 157.26953125 38.732395 0.6666667 0.10000049
1268 157.26953125 38.732395 1.3333334 0.10000049
757 157.26953125 33.09859 -2.0 4.1995665e-07
758 157.26953125 32.394367 -1.3333334 4.110214e-07
765 157.26953125 30.28169 -2.0 3.8421567e-07
764 157.26953125 30.28169 -1.3333334 3.8421567e-07
893 157.269515991 35.915493 -0.6666667 0.100000456
894 157.269515991 35.21127 0.0 0.10000045
901 157.269515991 33.09859 -0.6666667 0.10000042
900 157.269515991 33.09859 0.0 0.10000042
389 157.269515991 21.830986 -1.3333334 2.769927e-07
390 157.269515991 21.830986 -2.0 2.769927e-07
397 157.269515991 19.014084 -1.3333334 2.4125168e-07
396 157.269515991 19.71831 -2.0 2.5018693e-07
751 150.628387451 35.21127 -2.0 4.467624e-07
752 150.628387451 34.507042 -1.3333334 4.3782714e-07
759 150.628387451 32.394367 -2.0 4.110214e-07
758 150.628387451 32.394367 -1.3333334 4.110214e-07
247 150.628387451 6.338028 1.3333334 0.10000008
248 150.628387451 6.338028 0.6666667 0.10000008
255 150.628387451 4.2253523 2.0 0.10000005
254 150.628387451 4.9295774 0.6666667 0.10000006
894 150.628417969 35.21127 0.0 0.10000045
895 150.628417969 35.21127 -0.6666667 0.10000045
902 150.628417969 32.394367 0.0 0.10000041
901 150.628417969 33.09859 -0.6666667 0.10000042
390 150.628417969 21.830986 -2.0 2.769927e-07
391 150.628417969 21.12676 -1.3333334 2.6805742e-07
398 150.628417969 19.014084 -2.0 2.4125168e-07
397 150.628417969 19.014084 -1.3333334 2.4125168e-07
758 159.966827393 32.394367 -1.3333334 4.110214e-07
759 159.966827393 32.394367 -2.0 4.110214e-07
766 159.966827393 29.577465 -1.3333334 3.7528042e-07
765 159.966827393 30.28169 -2.0 3.8421567e-07
254 159.966827393 4.9295774 0.6666667 0.10000006
255 159.966827393 4.2253523 2.0 0.10000005
262 159.966827393 2.8169014 1.3333334 0.10000004
261 159.966827393 2.8169014 2.0 0.10000004
1405 159.966842651 44.366196 0.0 0.20000057
1406 159.966842651 44.366196 -0.6666667 0.20000057
1413 159.966842651 43.661972 -0.6666667 0.20000055
1412 159.966842651 43.661972 0.0 0.20000055
901 159.966842651 33.09859 -0.6666667 0.10000042
902 159.966842651 32.394367 0.0 0.10000041
909 159.966842651 30.28169 -0.6666667 0.10000039
908 159.966842651 30.28169 0.0 0.10000039
759 157.32901001 32.394367 -2.0 4.110214e-07
760 157.32901001 31.690142 -1.3333334 4.0208616e-07
767 157.32901001 29.577465 -2.0 3.7528042e-07
766 157.32901001 29.577465 -1.3333334 3.7528042e-07
255 157.32901001 4.2253523 2.0 0.10000005
256 157.32901001 4.2253523 1.3333334 0.10000005
263 157.32901001 2.8169014 0.6666667 0.10000004
262 157.32901001 2.8169014 1.3333334 0.10000004
907 157.329025269 30.985916 -0.6666667 0.1000004
908 157.329025269 30.28169 0.0 0.10000039
915 157.329025269 28.169014 -0.6666667 0.10000036
914 157.329025269 28.169014 0.0 0.10000036
403 157.329025269 16.90141 -1.3333334 2.1444595e-07
404 157.329025269 16.90141 -2.0 2.1444595e-07
411 157.329025269 14.084507 -1.3333334 1.7870495e-07
410 157.329025269 14.788733 -2.0 1.876402e-07
1145 148.778381348 36.619717 -1.3333334 4.6463285e-07
1146 148.778381348 36.619717 -2.0 4.6463285e-07
1153 148.778381348 42.25352 -1.3333334 0.10000054
1152 148.778381348 42.25352 -0.6666667 0.10000054
641 148.778381348 13.380281 1.3333334 0.10000017
642 148.778381348 13.380281 0.6666667 0.10000017
649 148.778381348 17.605635 1.3333334 0.20000023
648 148.778381348 17.605635 2.0 0.20000023
908 148.778396606 30.28169 0.0 0.10000039
909 148.778396606 30.28169 -0.6666667 0.10000039
916 148.778396606 27.464788 0.0 0.10000035
915 148.778396606 28.169014 -0.6666667 0.10000036
404 148.778396606 16.90141 -2.0 2.1444595e-07
405 148.778396606 16.197184 -1.3333334 2.055107e-07
412 148.778396606 14.084507 -2.0 1.7870495e-07
411 148.778396606 14.084507 -1.3333334 1.7870495e-07
1152 160.242095947 42.25352 -0.6666667 0.10000054
1153 160.242095947 42.25352 -1.3333334 0.10000054
1160 160.242095947 40.84507 -0.6666667 0.100000516
1159 160.242095947 40.84507 0.0 0.100000516
648 160.242095947 17.605635 2.0 0.20000023
649 160.242095947 17.605635 1.3333334 0.20000023
656 160.242095947 16.197184 0.6666667 0.20000021
655 160.242095947 16.197184 1.3333334 0.20000021
915 160.242111206 28.169014 -0.6666667 0.10000036
916 160.242111206 27.464788 0.0 0.10000035
923 160.242111206 36.619717 -0.6666667 0.20000046
922 160.242111206 36.619717 0.0 0.20000046
411 160.242111206 14.084507 -1.3333334 1.7870495e-07
412 160.242111206 14.084507 -2.0 1.7870495e-07
419 160.242111206 23.943663 -1.3333334 0.10000031
418 160.242111206 24.647888 -2.0 0.100000314
649 157.462982178 17.605635 1.3333334 0.20000023
650 157.462982178 17.605635 0.6666667 0.20000023
657 157.462982178 15.492958 2.0 0.2000002
656 157.462982178 16.197184 0.6666667 0.20000021
145 157.462982178 11.971831 0.0 0.10000015
146 157.462982178 11.971831 -0.6666667 0.10000015
153 157.462982178 9.154929 0.0 0.10000012
152 157.462982178 9.859155 -0.6666667 0.10000013
1419 157.462982178 50.0 -5.551115e-17 6.3440257e-07
1420 157.462982178 50.0 -0.6666667 6.3440257e-07
1427 157.462982178 49.295776 -0.6666667 6.2546735e-07
1426 157.462982178 49.295776 0.0 6.2546735e-07
915 157.462982178 28.169014 -0.6666667 0.10000036
916 157.462982178 27.464788 0.0 0.10000035
923 157.462982178 36.619717 -0.6666667 0.20000046
922 157.462982178 36.619717 0.0 0.20000046
1153 148.197235107 42.25352 -1.3333334 0.10000054
1154 148.197235107 42.25352 -2.0 0.10000054
1161 148.197235107 40.84507 -1.3333334 0.100000516
1160 148.197235107 40.84507 -0.6666667 0.100000516
649 148.197235107 17.605635 1.3333334 0.20000023
650 148.197235107 17.605635 0.6666667 0.20000023
657 148.197235107 15.492958 2.0 0.2000002
656 148.197235107 16.197184 0.6666667 0.20000021
921 148.19732666 25.352112 -0.6666667 0.10000032
922 148.19732666 36.619717 0.0 0.20000046
929 148.19732666 34.507042 -0.6666667 0.20000044
928 148.19732666 34.507042 0.0 0.20000044
417 148.19732666 24.647888 -1.3333334 0.100000314
418 148.19732666 24.647888 -2.0 0.100000314
425 148.19732666 21.830986 -1.3333334 0.10000028
424 148.19732666 22.535212 -2.0 0.100000285
1160 160.470993042 40.84507 -0.6666667 0.100000516
1161 160.470993042 40.84507 -1.3333334 0.100000516
1168 160.470993042 39.43662 -0.6666667 0.1000005
1167 160.470993042 39.43662 0.0 0.1000005
656 160.470993042 16.197184 0.6666667 0.20000021
657 160.470993042 15.492958 2.0 0.2000002
664 160.470993042 14.084507 1.3333334 0.20000018
663 160.470993042 14.084507 2.0 0.20000018
928 160.471008301 34.507042 0.0 0.20000044
929 160.471008301 34.507042 -0.6666667 0.20000044
936 160.471008301 31.690142 -0.6666667 0.2000004
935 160.471008301 31.690142 0.0 0.2000004
424 160.471008301 22.535212 -2.0 0.100000285
425 160.471008301 21.830986 -1.3333334 0.10000028
432 160.471008301 19.71831 -2.0 0.100000255
431 160.471008301 19.71831 -1.3333334 0.100000255
662 157.555038452 14.788733 0.6666667 0.2000002
663 157.555038452 14.084507 2.0 0.20000018
670 157.555038452 12.676056 1.3333334 0.20000017
669 157.555038452 12.676056 2.0 0.20000017
158 157.555038452 7.746479 -0.6666667 0.1000001
159 157.555038452 7.0422535 0.0 0.10000009
166 157.555038452 4.9295774 -0.6666667 0.10000006
165 157.555038452 4.9295774 0.0 0.10000006
1432 157.555053711 48.59155 0.6666667 6.165321e-07
1433 157.555053711 48.59155 0.0 6.165321e-07
1440 157.555053711 47.887325 0.0 6.0759686e-07
1439 157.555053711 47.887325 0.6666667 6.0759686e-07
928 157.555053711 34.507042 0.0 0.20000044
929 157.555053711 34.507042 -0.6666667 0.20000044
936 157.555053711 31.690142 -0.6666667 0.2000004
935 157.555053711 31.690142 0.0 0.2000004
1166 145.607376099 40.140846 -2.0 0.10000051
1167 145.607376099 39.43662 0.0 0.1000005
1174 145.607376099 38.732395 -2.0 0.10000049
1173 145.607376099 38.732395 -1.3333334 0.10000049
662 145.607376099 14.788733 0.6666667 0.2000002
663 145.607376099 14.084507 2.0 0.20000018
670 145.607376099 12.676056 1.3333334 0.20000017
669 145.607376099 12.676056 2.0 0.20000017
929 145.60736084 34.507042 -0.6666667 0.20000044
930 145.60736084 33.80282 0.0 0.20000044
937 145.60736084 30.985916 0.0 0.20000039
936 145.60736084 31.690142 -0.6666667 0.2000004
425 145.60736084 21.830986 -1.3333334 0.10000028
426 145.60736084 21.830986 -2.0 0.10000028
433 145.60736084 19.014084 -1.3333334 0.10000024
432 145.60736084 19.71831 -2.0 0.100000255
670 160.742233276 12.676056 1.3333334 0.20000017
671 160.742233276 23.943663 2.0 3.0379843e-07
678 160.742233276 22.535212 2.0 2.8592794e-07
677 160.742233276 23.239437 0.6666667 2.9486318e-07
166 160.742233276 4.9295774 -0.6666667 0.10000006
167 160.742233276 4.2253523 0.0 0.10000005
174 160.742233276 2.1126761 -0.6666667 0.10000003
173 160.742233276 2.1126761 0.0 0.10000003
936 160.742248535 31.690142 -0.6666667 0.2000004
937 160.742248535 30.985916 0.0 0.20000039
944 160.742248535 28.87324 -0.6666667 0.20000038
943 160.742248535 28.87324 0.0 0.20000038
432 160.742248535 19.71831 -2.0 0.100000255
433 160.742248535 19.014084 -1.3333334 0.10000024
440 160.742248535 16.90141 -2.0 0.10000022
439 160.742248535 16.90141 -1.3333334 0.10000022
1174 157.757751465 38.732395 -2.0 0.10000049
1175 157.757751465 38.028168 0.0 0.100000486
1182 157.757751465 37.323944 -2.0 0.10000047
1181 157.757751465 37.323944 -1.3333334 0.10000047
670 157.757751465 12.676056 1.3333334 0.20000017
671 157.757751465 23.943663 2.0 3.0379843e-07
678 157.757751465 22.535212 2.0 2.8592794e-07
677 157.757751465 23.239437 0.6666667 2.9486318e-07
1440 157.757705688 47.887325 0.0 6.0759686e-07
1441 157.757705688 47.887325 -0.6666667 6.0759686e-07
1448 157.757705688 47.183098 -0.6666667 5.986616e-07
1447 157.757705688 47.183098 0.0 5.986616e-07
936 157.757705688 31.690142 -0.6666667 0.2000004
937 157.757705688 30.985916 0.0 0.20000039
944 157.757705688 28.87324 -0.6666667 0.20000038
943 157.757705688 28.87324 0.0 0.20000038
676 145.161956787 23.239437 1.3333334 2.9486318e-07
677 145.161956787 23.239437 0.6666667 2.9486318e-07
684 145.161956787 21.12676 2.0 2.6805742e-07
683 145.161956787 21.830986 0.6666667 2.769927e-07
172 145.161956787 2.8169014 -0.6666667 0.10000004
173 145.161956787 2.1126761 0.0 0.10000003
180 145.161956787 -1.2688052e-09 -0.6666667 0.1
179 145.161956787 -1.2688052e-09 0.0 0.1
1446 145.162033081 47.183098 0.6666667 5.986616e-07
1447 145.162033081 47.183098 0.0 5.986616e-07
1454 145.162033081 50.0 -1.6653345e-16 0.100000635
1453 145.162033081 50.0 0.6666667 0.100000635
942 145.162033081 29.577465 -0.6666667 0.20000038
943 145.162033081 28.87324 0.0 0.20000038
950 145.162033081 26.056337 -0.6666667 0.20000033
949 145.162033081 26.056337 0.0 0.20000033
1187 160.939712524 42.25352 0.0 0.20000054
1188 160.939712524 42.25352 -0.6666667 0.20000054
1195 160.939712524 40.84507 0.0 0.20000052
1194 160.939712524 41.549297 -2.0 0.20000052
683 160.939712524 21.830986 0.6666667 2.769927e-07
684 160.939712524 21.12676 2.0 2.6805742e-07
691 160.939712524 19.71831 1.3333334 2.5018693e-07
690 160.939712524 19.71831 2.0 2.5018693e-07
1453 160.939712524 50.0 0.6666667 0.100000635
1454 160.939712524 50.0 -1.6653345e-16 0.100000635
1461 160.939712524 49.295776 0.0 0.10000063
1460 160.939712524 49.295776 0.6666667 0.10000063
949 160.939712524 26.056337 0.0 0.20000033
950 160.939712524 26.056337 -0.6666667 0.20000033
957 160.939712524 29.577465 1.3333334 3.7528042e-07
956 160.939712524 29.577465 2.0 3.7528042e-07
684 157.77734375 21.12676 2.0 2.6805742e-07
685 157.77734375 21.12676 1.3333334 2.6805742e-07
692 157.77734375 19.71831 0.6666667 2.5018693e-07
691 157.77734375 19.71831 1.3333334 2.5018693e-07
180 157.77734375 -1.2688052e-09 -0.6666667 0.1
181 157.77734375 11.971831 0.0 0.20000015
188 157.77734375 9.859155 -0.6666667 0.20000012
187 157.77734375 9.859155 0.0 0.20000012
950 157.777359009 26.056337 -0.6666667 0.20000033
951 157.777359009 25.352112 0.0 0.20000033
958 157.777359009 29.577465 0.6666667 3.7528042e-07
957 157.777359009 29.577465 1.3333334 3.7528042e-07
446 157.777359009 14.788733 -2.0 0.10000019
447 157.777359009 14.084507 -1.3333334 0.10000018
454 157.777359009 24.647888 -2.0 0.20000032
453 157.777359009 24.647888 -1.3333334 0.20000032
1188 141.630477905 42.25352 -0.6666667 0.20000054
1189 141.630477905 42.25352 -1.3333334 0.20000054
1196 141.630477905 40.84507 -0.6666667 0.20000052
1195 141.630477905 40.84507 0.0 0.20000052
684 141.630477905 21.12676 2.0 2.6805742e-07
685 141.630477905 21.12676 1.3333334 2.6805742e-07
692 141.630477905 19.71831 0.6666667 2.5018693e-07
691 141.630477905 19.71831 1.3333334 2.5018693e-07
1454 141.630279541 50.0 -1.6653345e-16 0.100000635
1455 141.630279541 50.0 -0.6666667 0.100000635
1462 141.630279541 49.295776 -0.6666667 0.10000063
1461 141.630279541 49.295776 0.0 0.10000063
950 141.630279541 26.056337 -0.6666667 0.20000033
951 141.630279541 25.352112 0.0 0.20000033
958 141.630279541 29.577465 0.6666667 3.7528042e-07
957 141.630279541 29.577465 1.3333334 3.7528042e-07
690 167.273712158 19.71831 2.0 2.5018693e-07
691 167.273712158 19.71831 1.3333334 2.5018693e-07
698 167.273712158 23.943663 2.0 0.10000031
697 167.273712158 24.647888 0.6666667 0.100000314
186 167.273712158 10.56338 -0.6666667 0.20000014
187 167.273712158 9.859155 0.0 0.20000012
194 167.273712158 7.746479 -0.6666667 0.2000001
193 167.273712158 7.746479 0.0 0.2000001
1194 165.420318604 41.549297 -2.0 0.20000052
1195 165.420318604 40.84507 0.0 0.20000052
1202 165.420318604 40.140846 -2.0 0.20000051
1201 165.420318604 40.140846 -1.3333334 0.20000051
690 165.420318604 19.71831 2.0 2.5018693e-07
691 165.420318604 19.71831 1.3333334 2.5018693e-07
698 165.420318604 23.943663 2.0 0.10000031
697 165.420318604 24.647888 0.6666667 0.100000314
956 167.273727417 29.577465 2.0 3.7528042e-07
957 167.273727417 29.577465 1.3333334 3.7528042e-07
964 167.273727417 28.169014 0.6666667 3.574099e-07
963 167.273727417 28.169014 1.3333334 3.574099e-07
452 167.273727417 12.676056 -2.0 0.100000165
453 167.273727417 24.647888 -1.3333334 0.20000032
460 167.273727417 22.535212 -2.0 0.20000029
459 167.273727417 22.535212 -1.3333334 0.20000029
1447 164.925415039 47.183098 0.0 5.986616e-07
1448 164.925415039 47.183098 -0.6666667 5.986616e-07
1455 164.925415039 50.0 -0.6666667 0.100000635
1454 164.925415039 50.0 -1.6653345e-16 0.100000635
943 164.925415039 28.87324 0.0 0.20000038
944 164.925415039 28.87324 -0.6666667 0.20000038
951 164.925415039 25.352112 0.0 0.20000033
950 164.925415039 26.056337 -0.6666667 0.20000033
957 165.420318604 29.577465 1.3333334 3.7528042e-07
958 165.420318604 29.577465 0.6666667 3.7528042e-07
965 165.420318604 27.464788 2.0 3.4847466e-07
964 165.420318604 28.169014 0.6666667 3.574099e-07
453 165.420318604 24.647888 -1.3333334 0.20000032
454 165.420318604 24.647888 -2.0 0.20000032
461 165.420318604 21.830986 -1.3333334 0.20000029
460 165.420318604 22.535212 -2.0 0.20000029
1202 168.139511108 40.140846 -2.0 0.20000051
1203 168.139511108 39.43662 0.0 0.20000051
1210 168.139511108 38.732395 -2.0 0.2000005
1209 168.139511108 38.732395 -1.3333334 0.2000005
698 168.139511108 23.943663 2.0 0.10000031
699 168.139511108 23.943663 1.3333334 0.10000031
706 168.139511108 22.535212 0.6666667 0.100000285
705 168.139511108 22.535212 1.3333334 0.100000285
704 165.89956665 22.535212 2.0 0.100000285
705 165.89956665 22.535212 1.3333334 0.100000285
712 165.89956665 21.12676 0.6666667 0.10000027
711 165.89956665 21.12676 1.3333334 0.10000027
200 165.89956665 5.633803 -0.6666667 0.20000008
201 165.89956665 4.9295774 0.0 0.20000006
208 165.89956665 2.8169014 -0.6666667 0.20000003
207 165.89956665 2.8169014 0.0 0.20000003
1468 168.13949585 48.59155 0.0 0.10000062
1469 168.13949585 48.59155 -0.6666667 0.10000062
1476 168.13949585 47.887325 -0.6666667 0.100000605
1475 168.13949585 47.887325 0.0 0.100000605
964 168.13949585 28.169014 0.6666667 3.574099e-07
965 168.13949585 27.464788 2.0 3.4847466e-07
972 168.13949585 26.056337 1.3333334 3.3060417e-07
971 168.13949585 26.056337 2.0 3.3060417e-07
1474 165.89956665 47.887325 0.6666667 0.100000605
1475 165.89956665 47.887325 0.0 0.100000605
1482 165.89956665 50.0 2.0 0.20000064
1481 165.89956665 47.183098 -2.0 0.1000006
970 165.89956665 26.760563 0.6666667 3.395394e-07
971 165.89956665 26.056337 2.0 3.3060417e-07
978 165.89956665 24.647888 1.3333334 3.1273368e-07
977 165.89956665 24.647888 2.0 3.1273368e-07
691 163.465057373 19.71831 1.3333334 2.5018693e-07
692 163.465057373 19.71831 0.6666667 2.5018693e-07
699 163.465057373 23.943663 1.3333334 0.10000031
698 163.465057373 23.943663 2.0 0.10000031
187 163.465057373 9.859155 0.0 0.20000012
188 163.465057373 9.859155 -0.6666667 0.20000012
195 163.465057373 7.0422535 0.0 0.20000009
194 163.465057373 7.746479 -0.6666667 0.2000001
1461 163.465057373 49.295776 0.0 0.10000063
1462 163.465057373 49.295776 -0.6666667 0.10000063
1469 163.465057373 48.59155 -0.6666667 0.10000062
1468 163.465057373 48.59155 0.0 0.10000062
957 163.465057373 29.577465 1.3333334 3.7528042e-07
958 163.465057373 29.577465 0.6666667 3.7528042e-07
965 163.465057373 27.464788 2.0 3.4847466e-07
964 163.465057373 28.169014 0.6666667 3.574099e-07
705 163.757110596 22.535212 1.3333334 0.100000285
706 163.757110596 22.535212 0.6666667 0.100000285
713 163.757110596 20.422535 2.0 0.10000026
712 163.757110596 21.12676 0.6666667 0.10000027
201 163.757110596 4.9295774 0.0 0.20000006
202 163.757110596 4.9295774 -0.6666667 0.20000006
209 163.757110596 2.1126761 0.0 0.20000003
208 163.757110596 2.8169014 -0.6666667 0.20000003
971 163.757125854 26.056337 2.0 3.3060417e-07
972 163.757125854 26.056337 1.3333334 3.3060417e-07
979 163.757125854 24.647888 0.6666667 3.1273368e-07
978 163.757125854 24.647888 1.3333334 3.1273368e-07
467 163.757125854 19.71831 -1.3333334 0.20000026
468 163.757125854 19.71831 -2.0 0.20000026
475 163.757125854 16.90141 -1.3333334 0.20000021
474 163.757125854 17.605635 -2.0 0.20000023
712 169.857147217 21.12676 0.6666667 0.10000027
713 169.857147217 20.422535 2.0 0.10000026
720 169.857147217 19.014084 1.3333334 0.10000024
719 169.857147217 19.014084 2.0 0.10000024
208 169.857147217 2.8169014 -0.6666667 0.20000003
209 169.857147217 2.1126761 0.0 0.20000003
216 169.857147217 -2.5376103e-09 -0.6666667 0.2
215 169.857147217 -2.5376103e-09 0.0 0.2
1216 166.682662964 37.323944 -0.6666667 0.20000048
1217 166.682662964 37.323944 -1.3333334 0.20000048
1224 166.682662964 42.25352 0.6666667 5.3611484e-07
1223 166.682662964 42.25352 1.3333334 5.3611484e-07
712 166.682662964 21.12676 0.6666667 0.10000027
713 166.682662964 20.422535 2.0 0.10000026
720 166.682662964 19.014084 1.3333334 0.10000024
719 166.682662964 19.014084 2.0 0.10000024
978 169.857162476 24.647888 1.3333334 3.1273368e-07
979 169.857162476 24.647888 0.6666667 3.1273368e-07
986 169.857162476 28.87324 2.0 0.10000037
985 169.857162476 29.577465 0.6666667 0.100000374
474 169.857162476 17.605635 -2.0 0.20000023
475 169.857162476 16.90141 -1.3333334 0.20000021
482 169.857162476 14.788733 -2.0 0.2000002
481 169.857162476 14.788733 -1.3333334 0.2000002
1482 166.682678223 50.0 2.0 0.20000064
1483 166.682678223 50.0 1.3333334 0.20000064
1490 166.682678223 49.295776 1.3333334 0.20000063
1489 166.682678223 49.295776 2.0 0.20000063
978 166.682678223 24.647888 1.3333334 3.1273368e-07
979 166.682678223 24.647888 0.6666667 3.1273368e-07
986 166.682678223 28.87324 2.0 0.10000037
985 166.682678223 29.577465 0.6666667 0.100000374
718 164.27015686 19.71831 0.6666667 0.100000255
719 164.27015686 19.014084 2.0 0.10000024
726 164.27015686 23.943663 0.6666667 0.2000003
725 164.27015686 23.943663 1.3333334 0.2000003
214 164.27015686 0.70422536 -0.6666667 0.20000002
215 164.27015686 -2.5376103e-09 0.0 0.2
222 164.27015686 4.9295774 2.0 6.254673e-08
221 164.27015686 5.633803 0.6666667 7.1481985e-08
984 164.27015686 29.577465 1.3333334 0.100000374
985 164.27015686 29.577465 0.6666667 0.100000374
992 164.27015686 27.464788 2.0 0.10000035
991 164.27015686 28.169014 0.6666667 0.10000036
480 164.27015686 15.492958 -2.0 0.2000002
481 164.27015686 14.788733 -1.3333334 0.2000002
488 164.27015686 12.676056 -2.0 0.20000017
487 164.27015686 12.676056 -1.3333334 0.20000017
1195 161.193283081 40.84507 0.0 0.20000052
1196 161.193283081 40.84507 -0.6666667 0.20000052
1203 161.193283081 39.43662 0.0 0.20000051
1202 161.193283081 40.140846 -2.0 0.20000051
691 161.193283081 19.71831 1.3333334 2.5018693e-07
692 161.193283081 19.71831 0.6666667 2.5018693e-07
699 161.193283081 23.943663 1.3333334 0.10000031
698 161.193283081 23.943663 2.0 0.10000031
963 161.193283081 28.169014 1.3333334 3.574099e-07
964 161.193283081 28.169014 0.6666667 3.574099e-07
971 161.193283081 26.056337 2.0 3.3060417e-07
970 161.193283081 26.760563 0.6666667 3.395394e-07
459 161.193283081 22.535212 -1.3333334 0.20000029
460 161.193283081 22.535212 -2.0 0.20000029
467 161.193283081 19.71831 -1.3333334 0.20000026
466 161.193283081 20.422535 -2.0 0.20000026
1209 161.29510498 38.732395 -1.3333334 0.2000005
1210 161.29510498 38.732395 -2.0 0.2000005
1217 161.29510498 37.323944 -1.3333334 0.20000048
1216 161.29510498 37.323944 -0.6666667 0.20000048
705 161.29510498 22.535212 1.3333334 0.100000285
706 161.29510498 22.535212 0.6666667 0.100000285
713 161.29510498 20.422535 2.0 0.10000026
712 161.29510498 21.12676 0.6666667 0.10000027
1475 161.295120239 47.887325 0.0 0.100000605
1476 161.295120239 47.887325 -0.6666667 0.100000605
1483 161.295120239 50.0 1.3333334 0.20000064
1482 161.295120239 50.0 2.0 0.20000064
971 161.295120239 26.056337 2.0 3.3060417e-07
972 161.295120239 26.056337 1.3333334 3.3060417e-07
979 161.295120239 24.647888 0.6666667 3.1273368e-07
978 161.295120239 24.647888 1.3333334 3.1273368e-07
1222 161.666549683 42.25352 2.0 5.3611484e-07
1223 161.666549683 42.25352 1.3333334 5.3611484e-07
1230 161.666549683 40.84507 0.6666667 5.1824435e-07
1229 161.666549683 40.84507 1.3333334 5.1824435e-07
718 161.666549683 19.71831 0.6666667 0.100000255
719 161.666549683 19.014084 2.0 0.10000024
726 161.666549683 23.943663 0.6666667 0.2000003
725 161.666549683 23.943663 1.3333334 0.2000003
1488 161.666549683 50.0 -2.0 0.20000064
1489 161.666549683 49.295776 2.0 0.20000063
1496 161.666549683 48.59155 2.0 0.20000061
1495 161.666549683 49.295776 -2.0 0.20000063
984 161.666549683 29.577465 1.3333334 0.100000374
985 161.666549683 29.577465 0.6666667 0.100000374
992 161.666549683 27.464788 2.0 0.10000035
991 161.666549683 28.169014 0.6666667 0.10000036
725 170.801010132 23.943663 1.3333334 0.2000003
726 170.801010132 23.943663 0.6666667 0.2000003
733 170.801010132 21.830986 2.0 0.20000029
732 170.801010132 22.535212 0.6666667 0.20000029
221 170.801010132 5.633803 0.6666667 7.1481985e-08
222 170.801010132 4.9295774 2.0 6.254673e-08
229 170.801010132 3.5211267 1.3333334 4.4676238e-08
228 170.801010132 3.5211267 2.0 4.4676238e-08
726 167.662796021 23.943663 0.6666667 0.2000003
727 167.662796021 23.239437 2.0 0.2000003
734 167.662796021 21.830986 1.3333334 0.20000029
733 167.662796021 21.830986 2.0 0.20000029
222 167.662796021 4.9295774 2.0 6.254673e-08
223 167.662796021 4.9295774 1.3333334 6.254673e-08
230 167.662796021 3.5211267 0.6666667 4.4676238e-08
229 167.662796021 3.5211267 1.3333334 4.4676238e-08
991 170.801010132 28.169014 0.6666667 0.10000036
992 170.801010132 27.464788 2.0 0.10000035
999 170.801010132 26.056337 1.3333334 0.10000033
998 170.801010132 26.056337 2.0 0.10000033
487 170.801010132 12.676056 -1.3333334 0.20000017
488 170.801010132 12.676056 -2.0 0.20000017
495 170.801010132 21.830986 -0.6666667 2.769927e-07
494 170.801010132 21.830986 0.0 2.769927e-07
998 167.662796021 26.056337 2.0 0.10000033
999 167.662796021 26.056337 1.3333334 0.10000033
1006 167.662796021 30.28169 1.3333334 0.20000039
1005 167.662796021 30.28169 2.0 0.20000039
494 167.662796021 21.830986 0.0 2.769927e-07
495 167.662796021 21.830986 -0.6666667 2.769927e-07
502 167.662796021 19.014084 0.0 2.4125168e-07
501 167.662796021 19.71831 -0.6666667 2.5018693e-07
1229 164.984191895 40.84507 1.3333334 5.1824435e-07
1230 164.984191895 40.84507 0.6666667 5.1824435e-07
1237 164.984191895 38.732395 2.0 4.9143864e-07
1236 164.984191895 39.43662 0.6666667 5.0037386e-07
725 164.984191895 23.943663 1.3333334 0.2000003
726 164.984191895 23.943663 0.6666667 0.2000003
733 164.984191895 21.830986 2.0 0.20000029
732 164.984191895 22.535212 0.6666667 0.20000029
1495 164.984191895 49.295776 -2.0 0.20000063
1496 164.984191895 48.59155 2.0 0.20000061
1503 164.984191895 47.887325 2.0 0.20000061
1502 164.984191895 48.59155 -2.0 0.20000061
991 164.984191895 28.169014 0.6666667 0.10000036
992 164.984191895 27.464788 2.0 0.10000035
999 164.984191895 26.056337 1.3333334 0.10000033
998 164.984191895 26.056337 2.0 0.10000033
1230 162.003875732 40.84507 0.6666667 5.1824435e-07
1231 162.003875732 40.140846 2.0 5.0930913e-07
1238 162.003875732 38.732395 1.3333334 4.9143864e-07
1237 162.003875732 38.732395 2.0 4.9143864e-07
726 162.003875732 23.943663 0.6666667 0.2000003
727 162.003875732 23.239437 2.0 0.2000003
734 162.003875732 21.830986 1.3333334 0.20000029
733 162.003875732 21.830986 2.0 0.20000029
1502 162.003890991 48.59155 -2.0 0.20000061
1503 162.003890991 47.887325 2.0 0.20000061
1510 162.003890991 47.183098 -0.6666667 0.2000006
1509 162.003890991 47.887325 -2.0 0.20000061
998 162.003890991 26.056337 2.0 0.10000033
999 162.003890991 26.056337 1.3333334 0.10000033
1006 162.003890991 30.28169 1.3333334 0.20000039
1005 162.003890991 30.28169 2.0 0.20000039
1201 157.988052368 40.140846 -1.3333334 0.20000051
1202 157.988052368 40.140846 -2.0 0.20000051
1209 157.988052368 38.732395 -1.3333334 0.2000005
1208 157.988052368 38.732395 -0.6666667 0.2000005
697 157.988052368 24.647888 0.6666667 0.100000314
698 157.988052368 23.943663 2.0 0.10000031
705 157.988052368 22.535212 1.3333334 0.100000285
704 157.988052368 22.535212 2.0 0.100000285
1467 157.988067627 48.59155 0.6666667 0.10000062
1468 157.988067627 48.59155 0.0 0.10000062
1475 157.988067627 47.887325 0.0 0.100000605
1474 157.988067627 47.887325 0.6666667 0.100000605
963 157.988067627 28.169014 1.3333334 3.574099e-07
964 157.988067627 28.169014 0.6666667 3.574099e-07
971 157.988067627 26.056337 2.0 3.3060417e-07
970 157.988067627 26.760563 0.6666667 3.395394e-07
711 157.864730835 21.12676 1.3333334 0.10000027
712 157.864730835 21.12676 0.6666667 0.10000027
719 157.864730835 19.014084 2.0 0.10000024
718 157.864730835 19.71831 0.6666667 0.100000255
207 157.864730835 2.8169014 0.0 0.20000003
208 157.864730835 2.8169014 -0.6666667 0.20000003
215 157.864730835 -2.5376103e-09 0.0 0.2
214 157.864730835 0.70422536 -0.6666667 0.20000002
977 157.864730835 24.647888 2.0 3.1273368e-07
978 157.864730835 24.647888 1.3333334 3.1273368e-07
985 157.864730835 29.577465 0.6666667 0.100000374
984 157.864730835 29.577465 1.3333334 0.100000374
473 157.864730835 17.605635 -1.3333334 0.20000023
474 157.864730835 17.605635 -2.0 0.20000023
481 157.864730835 14.788733 -1.3333334 0.2000002
480 157.864730835 15.492958 -2.0 0.2000002
719 158.155380249 19.014084 2.0 0.10000024
720 158.155380249 19.014084 1.3333334 0.10000024
727 158.155380249 23.239437 2.0 0.2000003
726 158.155380249 23.943663 0.6666667 0.2000003
215 158.155380249 -2.5376103e-09 0.0 0.2
216 158.155380249 -2.5376103e-09 -0.6666667 0.2
223 158.155380249 4.9295774 1.3333334 6.254673e-08
222 158.155380249 4.9295774 2.0 6.254673e-08
985 158.155395508 29.577465 0.6666667 0.100000374
986 158.155395508 28.87324 2.0 0.10000037
993 158.155395508 27.464788 1.3333334 0.10000035
992 158.155395508 27.464788 2.0 0.10000035
481 158.155395508 14.788733 -1.3333334 0.2000002
482 158.155395508 14.788733 -2.0 0.2000002
489 158.155395508 23.943663 -0.6666667 3.0379843e-07
488 158.155395508 12.676056 -2.0 0.20000017
732 158.105758667 22.535212 0.6666667 0.20000029
733 158.105758667 21.830986 2.0 0.20000029
740 158.105758667 20.422535 1.3333334 0.20000026
739 158.105758667 20.422535 2.0 0.20000026
228 158.105758667 3.5211267 2.0 4.4676238e-08
229 158.105758667 3.5211267 1.3333334 4.4676238e-08
236 158.105758667 2.1126761 0.6666667 2.6805743e-08
235 158.105758667 2.1126761 1.3333334 2.6805743e-08
992 158.105743408 27.464788 2.0 0.10000035
993 158.105743408 27.464788 1.3333334 0.10000035
1000 158.105743408 26.056337 0.6666667 0.10000033
999 158.105743408 26.056337 1.3333334 0.10000033
488 158.105743408 12.676056 -2.0 0.20000017
489 158.105743408 23.943663 -0.6666667 3.0379843e-07
496 158.105743408 21.12676 0.0 2.6805742e-07
495 158.105743408 21.830986 -0.6666667 2.769927e-07
1236 171.829025269 39.43662 0.6666667 5.0037386e-07
1237 171.829025269 38.732395 2.0 4.9143864e-07
1244 171.829025269 37.323944 1.3333334 4.7356812e-07
1243 171.829025269 37.323944 2.0 4.7356812e-07
732 171.829025269 22.535212 0.6666667 0.20000029
733 171.829025269 21.830986 2.0 0.20000029
740 171.829025269 20.422535 1.3333334 0.20000026
739 171.829025269 20.422535 2.0 0.20000026
1243 169.400650024 37.323944 2.0 4.7356812e-07
1244 169.400650024 37.323944 1.3333334 4.7356812e-07
1251 169.400650024 42.957745 0.6666667 0.100000545
1250 169.400650024 42.957745 1.3333334 0.100000545
739 169.400650024 20.422535 2.0 0.20000026
740 169.400650024 20.422535 1.3333334 0.20000026
747 169.400650024 19.014084 0.6666667 0.20000024
746 169.400650024 19.014084 1.3333334 0.20000024
1496 171.829040527 48.59155 2.0 0.20000061
1497 171.829040527 48.59155 1.3333334 0.20000061
1504 171.829040527 47.887325 1.3333334 0.20000061
1503 171.829040527 47.887325 2.0 0.20000061
992 171.829040527 27.464788 2.0 0.10000035
993 171.829040527 27.464788 1.3333334 0.10000035
1000 171.829040527 26.056337 0.6666667 0.10000033
999 171.829040527 26.056337 1.3333334 0.10000033
1503 169.400650024 47.887325 2.0 0.20000061
1504 169.400650024 47.887325 1.3333334 0.20000061
1511 169.400650024 47.183098 -1.3333334 0.2000006
1510 169.400650024 47.183098 -0.6666667 0.2000006
999 169.400650024 26.056337 1.3333334 0.10000033
1000 169.400650024 26.056337 0.6666667 0.10000033
1007 169.400650024 30.28169 0.6666667 0.20000039
1006 169.400650024 30.28169 1.3333334 0.20000039
740 166.192398071 20.422535 1.3333334 0.20000026
741 166.192398071 20.422535 0.6666667 0.20000026
748 166.192398071 35.915493 -1.3333334 4.5569763e-07
747 166.192398071 19.014084 0.6666667 0.20000024
236 166.192398071 2.1126761 0.6666667 2.6805743e-08
237 166.192398071 1.4084507 2.0 1.7870496e-08
244 166.192398071 0.0 1.3333334 0.0
243 166.192398071 0.0 2.0 0.0
1000 166.19241333 26.056337 0.6666667 0.10000033
1001 166.19241333 25.352112 2.0 0.10000032
1008 166.19241333 29.577465 2.0 0.20000038
1007 166.19241333 30.28169 0.6666667 0.20000039
496 166.19241333 21.12676 0.0 2.6805742e-07
497 166.19241333 21.12676 -0.6666667 2.6805742e-07
504 166.19241333 18.309858 0.0 2.3231642e-07
503 166.19241333 19.014084 -0.6666667 2.4125168e-07
1244 163.339904785 37.323944 1.3333334 4.7356812e-07
1245 163.339904785 37.323944 0.6666667 4.7356812e-07
1252 163.339904785 42.25352 2.0 0.10000054
1251 163.339904785 42.957745 0.6666667 0.100000545
740 163.339904785 20.422535 1.3333334 0.20000026
741 163.339904785 20.422535 0.6666667 0.20000026
748 163.339904785 35.915493 -1.3333334 4.5569763e-07
747 163.339904785 19.014084 0.6666667 0.20000024
1504 163.339874268 47.887325 1.3333334 0.20000061
1505 163.339874268 47.887325 0.6666667 0.20000061
1512 163.339874268 47.183098 -2.0 0.2000006
1511 163.339874268 47.183098 -1.3333334 0.2000006
1000 163.339874268 26.056337 0.6666667 0.10000033
1001 163.339874268 25.352112 2.0 0.10000032
1008 163.339874268 29.577465 2.0 0.20000038
1007 163.339874268 30.28169 0.6666667 0.20000039
746 159.360046387 19.014084 1.3333334 0.20000024
747 159.360046387 19.014084 0.6666667 0.20000024
754 159.360046387 33.80282 -1.3333334 4.2889192e-07
753 159.360046387 34.507042 -2.0 4.3782714e-07
242 159.360046387 0.70422536 0.6666667 8.935248e-09
243 159.360046387 0.0 2.0 0.0
250 159.360046387 5.633803 1.3333334 0.100000076
249 159.360046387 5.633803 2.0 0.100000076
993 159.360061646 27.464788 1.3333334 0.10000035
994 159.360061646 27.464788 0.6666667 0.10000035
1001 159.360061646 25.352112 2.0 0.10000032
1000 159.360061646 26.056337 0.6666667 0.10000033
489 159.360061646 23.943663 -0.6666667 3.0379843e-07
490 159.360061646 23.239437 0.0 2.9486318e-07
497 159.360061646 21.12676 -0.6666667 2.6805742e-07
496 159.360061646 21.12676 0.0 2.6805742e-07
698 141.681396484 23.943663 2.0 0.10000031
699 141.681396484 23.943663 1.3333334 0.10000031
706 141.681396484 22.535212 0.6666667 0.100000285
705 141.681396484 22.535212 1.3333334 0.100000285
194 141.681396484 7.746479 -0.6666667 0.2000001
195 141.681396484 7.0422535 0.0 0.20000009
202 141.681396484 4.9295774 -0.6666667 0.20000006
201 141.681396484 4.9295774 0.0 0.20000006
964 141.681594849 28.169014 0.6666667 3.574099e-07
965 141.681594849 27.464788 2.0 3.4847466e-07
972 141.681594849 26.056337 1.3333334 3.3060417e-07
971 141.681594849 26.056337 2.0 3.3060417e-07
460 141.681594849 22.535212 -2.0 0.20000029
461 141.681594849 21.830986 -1.3333334 0.20000029
468 141.681594849 19.71831 -2.0 0.20000026
467 141.681594849 19.71831 -1.3333334 0.20000026
1215 137.230270386 37.323944 0.0 0.20000048
1216 137.230270386 37.323944 -0.6666667 0.20000048
1223 137.230270386 42.25352 1.3333334 5.3611484e-07
1222 137.230270386 42.25352 2.0 5.3611484e-07
711 137.230270386 21.12676 1.3333334 0.10000027
712 137.230270386 21.12676 0.6666667 0.10000027
719 137.230270386 19.014084 2.0 0.10000024
718 137.230270386 19.71831 0.6666667 0.100000255
1481 137.230239868 47.183098 -2.0 0.1000006
1482 137.230239868 50.0 2.0 0.20000064
1489 137.230239868 49.295776 2.0 0.20000063
1488 137.230239868 50.0 -2.0 0.20000064
977 137.230239868 24.647888 2.0 3.1273368e-07
978 137.230239868 24.647888 1.3333334 3.1273368e-07
985 137.230239868 29.577465 0.6666667 0.100000374
984 137.230239868 29.577465 1.3333334 0.100000374
1223 138.429244995 42.25352 1.3333334 5.3611484e-07
1224 138.429244995 42.25352 0.6666667 5.3611484e-07
1231 138.429244995 40.140846 2.0 5.0930913e-07
1230 138.429244995 40.84507 0.6666667 5.1824435e-07
719 138.429244995 19.014084 2.0 0.10000024
720 138.429244995 19.014084 1.3333334 0.10000024
727 138.429244995 23.239437 2.0 0.2000003
726 138.429244995 23.943663 0.6666667 0.2000003
1489 138.429138184 49.295776 2.0 0.20000063
1490 138.429138184 49.295776 1.3333334 0.20000063
1497 138.429138184 48.59155 1.3333334 0.20000061
1496 138.429138184 48.59155 2.0 0.20000061
985 138.429138184 29.577465 0.6666667 0.100000374
986 138.429138184 28.87324 2.0 0.10000037
993 138.429138184 27.464788 1.3333334 0.10000035
992 138.429138184 27.464788 2.0 0.10000035
733 133.063705444 21.830986 2.0 0.20000029
734 133.063705444 21.830986 1.3333334 0.20000029
741 133.063705444 20.422535 0.6666667 0.20000026
740 133.063705444 20.422535 1.3333334 0.20000026
229 133.063705444 3.5211267 1.3333334 4.4676238e-08
230 133.063705444 3.5211267 0.6666667 4.4676238e-08
237 133.063705444 1.4084507 2.0 1.7870496e-08
236 133.063705444 2.1126761 0.6666667 2.6805743e-08
999 133.063812256 26.056337 1.3333334 0.10000033
1000 133.063812256 26.056337 0.6666667 0.10000033
1007 133.063812256 30.28169 0.6666667 0.20000039
1006 133.063812256 30.28169 1.3333334 0.20000039
495 133.063812256 21.830986 -0.6666667 2.769927e-07
496 133.063812256 21.12676 0.0 2.6805742e-07
503 133.063812256 19.014084 -0.6666667 2.4125168e-07
502 133.063812256 19.014084 0.0 2.4125168e-07
1250 135.170410156 42.957745 1.3333334 0.100000545
1251 135.170410156 42.957745 0.6666667 0.100000545
1258 135.170410156 40.84507 2.0 0.100000516
1257 135.170410156 41.549297 0.6666667 0.10000053
746 135.170410156 19.014084 1.3333334 0.20000024
747 135.170410156 19.014084 0.6666667 0.20000024
754 135.170410156 33.80282 -1.3333334 4.2889192e-07
753 135.170410156 34.507042 -2.0 4.3782714e-07
1497 135.170425415 48.59155 1.3333334 0.20000061
1498 135.170425415 48.59155 0.6666667 0.20000061
1505 135.170425415 47.887325 0.6666667 0.20000061
1504 135.170425415 47.887325 1.3333334 0.20000061
993 135.170425415 27.464788 1.3333334 0.10000035
994 135.170425415 27.464788 0.6666667 0.10000035
1001 135.170425415 25.352112 2.0 0.10000032
1000 135.170425415 26.056337 0.6666667 0.10000033
754 164.364730835 33.80282 -1.3333334 4.2889192e-07
755 164.364730835 33.80282 -2.0 4.2889192e-07
762 164.364730835 30.985916 -1.3333334 3.931509e-07
761 164.364730835 31.690142 -2.0 4.0208616e-07
250 164.364730835 5.633803 1.3333334 0.100000076
251 164.364730835 5.633803 0.6666667 0.100000076
258 164.364730835 3.5211267 2.0 0.100000046
257 164.364730835 4.2253523 0.6666667 0.10000005
761 125.934997559 31.690142 -2.0 4.0208616e-07
762 125.934997559 30.985916 -1.3333334 3.931509e-07
769 125.934997559 28.87324 -2.0 3.6634515e-07
768 125.934997559 28.87324 -1.3333334 3.6634515e-07
257 125.934997559 4.2253523 0.6666667 0.10000005
258 125.934997559 3.5211267 2.0 0.100000046
265 125.934997559 2.1126761 1.3333334 0.10000003
264 125.934997559 2.1126761 2.0 0.10000003
747 171.490600586 19.014084 0.6666667 0.20000024
748 171.490600586 35.915493 -1.3333334 4.5569763e-07
755 171.490600586 33.80282 -2.0 4.2889192e-07
754 171.490600586 33.80282 -1.3333334 4.2889192e-07
243 171.490600586 0.0 2.0 0.0
244 171.490600586 0.0 1.3333334 0.0
251 171.490600586 5.633803 0.6666667 0.100000076
250 171.490600586 5.633803 1.3333334 0.100000076
1251 170.186965942 42.957745 0.6666667 0.100000545
1252 170.186965942 42.25352 2.0 0.10000054
1259 170.186965942 40.84507 1.3333334 0.100000516
1258 170.186965942 40.84507 2.0 0.100000516
747 170.186965942 19.014084 0.6666667 0.20000024
748 170.186965942 35.915493 -1.3333334 4.5569763e-07
755 170.186965942 33.80282 -2.0 4.2889192e-07
754 170.186965942 33.80282 -1.3333334 4.2889192e-07
986 171.490600586 28.87324 2.0 0.10000037
987 171.490600586 28.87324 1.3333334 0.10000037
994 171.490600586 27.464788 0.6666667 0.10000035
993 171.490600586 27.464788 1.3333334 0.10000035
482 171.490600586 14.788733 -2.0 0.2000002
483 171.490600586 14.084507 -1.3333334 0.20000018
490 171.490600586 23.239437 0.0 2.9486318e-07
489 171.490600586 23.943663 -0.6666667 3.0379843e-07
1490 170.186965942 49.295776 1.3333334 0.20000063
1491 170.186965942 49.295776 0.6666667 0.20000063
1498 170.186965942 48.59155 0.6666667 0.20000061
1497 170.186965942 48.59155 1.3333334 0.20000061
986 170.186965942 28.87324 2.0 0.10000037
987 170.186965942 28.87324 1.3333334 0.10000037
994 170.186965942 27.464788 0.6666667 0.10000035
993 170.186965942 27.464788 1.3333334 0.10000035
1257 171.886260986 41.549297 0.6666667 0.10000053
1258 171.886260986 40.84507 2.0 0.100000516
1265 171.886260986 39.43662 1.3333334 0.1000005
1264 171.886260986 39.43662 2.0 0.1000005
753 171.886260986 34.507042 -2.0 4.3782714e-07
754 171.886260986 33.80282 -1.3333334 4.2889192e-07
761 171.886260986 31.690142 -2.0 4.0208616e-07
760 171.886260986 31.690142 -1.3333334 4.0208616e-07
1258 170.716644287 40.84507 2.0 0.100000516
1259 170.716644287 40.84507 1.3333334 0.100000516
1266 170.716644287 39.43662 0.6666667 0.1000005
1265 170.716644287 39.43662 1.3333334 0.1000005
754 170.716644287 33.80282 -1.3333334 4.2889192e-07
755 170.716644287 33.80282 -2.0 4.2889192e-07
762 170.716644287 30.985916 -1.3333334 3.931509e-07
761 170.716644287 31.690142 -2.0 4.0208616e-07
965 171.886276245 27.464788 2.0 3.4847466e-07
966 171.886276245 27.464788 1.3333334 3.4847466e-07
973 171.886276245 26.056337 0.6666667 3.3060417e-07
972 171.886276245 26.056337 1.3333334 3.3060417e-07
461 171.886276245 21.830986 -1.3333334 0.20000029
462 171.886276245 21.830986 -2.0 0.20000029
469 171.886276245 19.014084 -1.3333334 0.20000024
468 171.886276245 19.71831 -2.0 0.20000026
1469 170.716644287 48.59155 -0.6666667 0.10000062
1470 170.716644287 48.59155 -1.3333334 0.10000062
1477 170.716644287 47.887325 -1.3333334 0.100000605
1476 170.716644287 47.887325 -0.6666667 0.100000605
965 170.716644287 27.464788 2.0 3.4847466e-07
966 170.716644287 27.464788 1.3333334 3.4847466e-07
973 170.716644287 26.056337 0.6666667 3.3060417e-07
972 170.716644287 26.056337 1.3333334 3.3060417e-07
753 167.221328735 34.507042 -2.0 4.3782714e-07
754 167.221328735 33.80282 -1.3333334 4.2889192e-07
761 167.221328735 31.690142 -2.0 4.0208616e-07
760 167.221328735 31.690142 -1.3333334 4.0208616e-07
249 167.221328735 5.633803 2.0 0.100000076
250 167.221328735 5.633803 1.3333334 0.100000076
257 167.221328735 4.2253523 0.6666667 0.10000005
256 167.221328735 4.2253523 1.3333334 0.10000005
979 167.221343994 24.647888 0.6666667 3.1273368e-07
980 167.221343994 30.28169 2.0 0.10000039
987 167.221343994 28.87324 1.3333334 0.10000037
986 167.221343994 28.87324 2.0 0.10000037
475 167.221343994 16.90141 -1.3333334 0.20000021
476 167.221343994 16.90141 -2.0 0.20000021
483 167.221343994 14.084507 -1.3333334 0.20000018
482 167.221343994 14.788733 -2.0 0.2000002
1265 168.609710693 39.43662 1.3333334 0.1000005
1266 168.609710693 39.43662 0.6666667 0.1000005
1273 168.609710693 37.323944 2.0 0.10000047
1272 168.609710693 38.028168 0.6666667 0.100000486
761 168.609710693 31.690142 -2.0 4.0208616e-07
762 168.609710693 30.985916 -1.3333334 3.931509e-07
769 168.609710693 28.87324 -2.0 3.6634515e-07
768 168.609710693 28.87324 -1.3333334 3.6634515e-07
958 168.609725952 29.577465 0.6666667 3.7528042e-07
959 168.609725952 28.87324 2.0 3.6634515e-07
966 168.609725952 27.464788 1.3333334 3.4847466e-07
965 168.609725952 27.464788 2.0 3.4847466e-07
454 168.609725952 24.647888 -2.0 0.20000032
455 168.609725952 23.943663 -1.3333334 0.2000003
462 168.609725952 21.830986 -2.0 0.20000029
461 168.609725952 21.830986 -1.3333334 0.20000029
657 169.741912842 15.492958 2.0 0.2000002
658 169.741912842 15.492958 1.3333334 0.2000002
665 169.741912842 14.084507 0.6666667 0.20000018
664 169.741912842 14.084507 1.3333334 0.20000018
153 169.741912842 9.154929 0.0 0.10000012
154 169.741912842 9.154929 -0.6666667 0.10000012
161 169.741912842 6.338028 0.0 0.10000008
160 169.741912842 7.0422535 -0.6666667 0.10000009
1161 170.083892822 40.84507 -1.3333334 0.100000516
1162 170.083892822 40.84507 -2.0 0.100000516
1169 170.083892822 39.43662 -1.3333334 0.1000005
1168 170.083892822 39.43662 -0.6666667 0.1000005
657 170.083892822 15.492958 2.0 0.2000002
658 170.083892822 15.492958 1.3333334 0.2000002
665 170.083892822 14.084507 0.6666667 0.20000018
664 170.083892822 14.084507 1.3333334 0.20000018
944 169.741928101 28.87324 -0.6666667 0.20000038
945 169.741928101 28.169014 0.0 0.20000036
952 169.741928101 25.352112 -0.6666667 0.20000033
951 169.741928101 25.352112 0.0 0.20000033
440 169.741928101 16.90141 -2.0 0.10000022
441 169.741928101 16.197184 -1.3333334 0.10000021
448 169.741928101 14.084507 -2.0 0.10000018
447 169.741928101 14.084507 -1.3333334 0.10000018
1448 170.083892822 47.183098 -0.6666667 5.986616e-07
1449 170.083892822 47.183098 -1.3333334 5.986616e-07
1456 170.083892822 50.0 -1.3333334 0.100000635
1455 170.083892822 50.0 -0.6666667 0.100000635
944 170.083892822 28.87324 -0.6666667 0.20000038
945 170.083892822 28.169014 0.0 0.20000036
952 170.083892822 25.352112 -0.6666667 0.20000033
951 170.083892822 25.352112 0.0 0.20000033
664 167.583816528 14.084507 1.3333334 0.20000018
665 167.583816528 14.084507 0.6666667 0.20000018
672 167.583816528 23.943663 1.3333334 3.0379843e-07
671 167.583816528 23.943663 2.0 3.0379843e-07
160 167.583816528 7.0422535 -0.6666667 0.10000009
161 167.583816528 6.338028 0.0 0.10000008
168 167.583816528 4.2253523 -0.6666667 0.10000005
167 167.583816528 4.2253523 0.0 0.10000005
937 167.583831787 30.985916 0.0 0.20000039
938 167.583831787 30.985916 -0.6666667 0.20000039
945 167.583831787 28.169014 0.0 0.20000036
944 167.583831787 28.87324 -0.6666667 0.20000038
433 167.583831787 19.014084 -1.3333334 0.10000024
434 167.583831787 19.014084 -2.0 0.10000024
441 167.583831787 16.197184 -1.3333334 0.10000021
440 167.583831787 16.90141 -2.0 0.10000022
1147 165.846542358 42.957745 0.0 0.100000545
1148 165.846542358 42.957745 -0.6666667 0.100000545
1155 165.846542358 41.549297 0.0 0.10000053
1154 165.846542358 42.25352 -2.0 0.10000054
643 165.846542358 12.676056 2.0 0.100000165
644 165.846542358 12.676056 1.3333334 0.100000165
651 165.846542358 16.90141 2.0 0.20000021
650 165.846542358 17.605635 0.6666667 0.20000023
1483 164.364730835 50.0 1.3333334 0.20000064
1484 164.364730835 50.0 0.6666667 0.20000064
1491 164.364730835 49.295776 0.6666667 0.20000063
1490 164.364730835 49.295776 1.3333334 0.20000063
979 164.364730835 24.647888 0.6666667 3.1273368e-07
980 164.364730835 30.28169 2.0 0.10000039
987 164.364730835 28.87324 1.3333334 0.10000037
986 164.364730835 28.87324 2.0 0.10000037
1462 165.846572876 49.295776 -0.6666667 0.10000063
1463 165.846572876 49.295776 -1.3333334 0.10000063
1470 165.846572876 48.59155 -1.3333334 0.10000062
1469 165.846572876 48.59155 -0.6666667 0.10000062
958 165.846572876 29.577465 0.6666667 3.7528042e-07
959 165.846572876 28.87324 2.0 3.6634515e-07
966 165.846572876 27.464788 1.3333334 3.4847466e-07
965 165.846572876 27.464788 2.0 3.4847466e-07
1168 164.187286377 39.43662 -0.6666667 0.1000005
1169 164.187286377 39.43662 -1.3333334 0.1000005
1176 164.187286377 38.028168 -0.6666667 0.100000486
1175 164.187286377 38.028168 0.0 0.100000486
664 164.187286377 14.084507 1.3333334 0.20000018
665 164.187286377 14.084507 0.6666667 0.20000018
672 164.187286377 23.943663 1.3333334 3.0379843e-07
671 164.187286377 23.943663 2.0 3.0379843e-07
1441 164.187332153 47.887325 -0.6666667 6.0759686e-07
1442 164.187332153 47.887325 -1.3333334 6.0759686e-07
1449 164.187332153 47.183098 -1.3333334 5.986616e-07
1448 164.187332153 47.183098 -0.6666667 5.986616e-07
937 164.187332153 30.985916 0.0 0.20000039
938 164.187332153 30.985916 -0.6666667 0.20000039
945 164.187332153 28.169014 0.0 0.20000036
944 164.187332153 28.87324 -0.6666667 0.20000038
678 171.703826904 22.535212 2.0 2.8592794e-07
679 171.703826904 22.535212 1.3333334 2.8592794e-07
686 171.703826904 21.12676 0.6666667 2.6805742e-07
685 171.703826904 21.12676 1.3333334 2.6805742e-07
174 171.703826904 2.1126761 -0.6666667 0.10000003
175 171.703826904 1.4084507 0.0 0.10000002
182 171.703826904 11.971831 -0.6666667 0.20000015
181 171.703826904 11.971831 0.0 0.20000015
1182 168.803405762 37.323944 -2.0 0.10000047
1183 168.803405762 42.957745 0.0 0.20000055
1190 168.803405762 42.25352 -2.0 0.20000054
1189 168.803405762 42.25352 -1.3333334 0.20000054
678 168.803405762 22.535212 2.0 2.8592794e-07
679 168.803405762 22.535212 1.3333334 2.8592794e-07
686 168.803405762 21.12676 0.6666667 2.6805742e-07
685 168.803405762 21.12676 1.3333334 2.6805742e-07
923 171.703872681 36.619717 -0.6666667 0.20000046
924 171.703872681 35.915493 0.0 0.20000046
931 171.703872681 33.80282 -0.6666667 0.20000044
930 171.703872681 33.80282 0.0 0.20000044
419 171.703872681 23.943663 -1.3333334 0.10000031
420 171.703872681 23.943663 -2.0 0.10000031
427 171.703872681 21.12676 -1.3333334 0.10000027
426 171.703872681 21.830986 -2.0 0.10000028
1427 168.803512573 49.295776 -0.6666667 6.2546735e-07
1428 168.803512573 49.295776 -1.3333334 6.2546735e-07
1435 168.803512573 48.59155 -1.3333334 6.165321e-07
1434 168.803512573 48.59155 -0.6666667 6.165321e-07
923 168.803512573 36.619717 -0.6666667 0.20000046
924 168.803512573 35.915493 0.0 0.20000046
931 168.803512573 33.80282 -0.6666667 0.20000044
930 168.803512573 33.80282 0.0 0.20000044
685 164.460922241 21.12676 1.3333334 2.6805742e-07
686 164.460922241 21.12676 0.6666667 2.6805742e-07
693 164.460922241 19.014084 2.0 2.4125168e-07
692 164.460922241 19.71831 0.6666667 2.5018693e-07
181 164.460922241 11.971831 0.0 0.20000015
182 164.460922241 11.971831 -0.6666667 0.20000015
189 164.460922241 9.154929 0.0 0.20000012
188 164.460922241 9.859155 -0.6666667 0.20000012
916 164.461029053 27.464788 0.0 0.10000035
917 164.461029053 26.760563 0.0 0.100000344
924 164.461029053 35.915493 0.0 0.20000046
923 164.461029053 36.619717 -0.6666667 0.20000046
412 164.461029053 14.084507 -2.0 1.7870495e-07
413 164.461029053 13.380281 -1.3333334 1.697697e-07
420 164.461029053 23.943663 -2.0 0.10000031
419 164.461029053 23.943663 -1.3333334 0.10000031
1189 160.410629272 42.25352 -1.3333334 0.20000054
1190 160.410629272 42.25352 -2.0 0.20000054
1197 160.410629272 40.84507 -1.3333334 0.20000052
1196 160.410629272 40.84507 -0.6666667 0.20000052
685 160.410629272 21.12676 1.3333334 2.6805742e-07
686 160.410629272 21.12676 0.6666667 2.6805742e-07
693 160.410629272 19.014084 2.0 2.4125168e-07
692 160.410629272 19.71831 0.6666667 2.5018693e-07
1420 160.410736084 50.0 -0.6666667 6.3440257e-07
1421 160.410736084 50.0 -1.3333334 6.3440257e-07
1428 160.410736084 49.295776 -1.3333334 6.2546735e-07
1427 160.410736084 49.295776 -0.6666667 6.2546735e-07
916 160.410736084 27.464788 0.0 0.10000035
917 160.410736084 26.760563 0.0 0.100000344
924 160.410736084 35.915493 0.0 0.20000046
923 160.410736084 36.619717 -0.6666667 0.20000046
760 160.342636108 31.690142 -1.3333334 4.0208616e-07
761 160.342636108 31.690142 -2.0 4.0208616e-07
768 160.342636108 28.87324 -1.3333334 3.6634515e-07
767 160.342636108 29.577465 -2.0 3.7528042e-07
256 160.342636108 4.2253523 1.3333334 0.10000005
257 160.342636108 4.2253523 0.6666667 0.10000005
264 160.342636108 2.1126761 2.0 0.10000003
263 160.342636108 2.8169014 0.6666667 0.10000004
650 161.552810669 17.605635 0.6666667 0.20000023
651 161.552810669 16.90141 2.0 0.20000021
658 161.552810669 15.492958 1.3333334 0.2000002
657 161.552810669 15.492958 2.0 0.2000002
146 161.552810669 11.971831 -0.6666667 0.10000015
147 161.552810669 11.267606 0.0 0.10000014
154 161.552810669 9.154929 -0.6666667 0.10000012
153 161.552810669 9.154929 0.0 0.10000012
972 160.342636108 26.056337 1.3333334 3.3060417e-07
973 160.342636108 26.056337 0.6666667 3.3060417e-07
980 160.342636108 30.28169 2.0 0.10000039
979 160.342636108 24.647888 0.6666667 3.1273368e-07
468 160.342636108 19.71831 -2.0 0.20000026
469 160.342636108 19.014084 -1.3333334 0.20000024
476 160.342636108 16.90141 -2.0 0.20000021
475 160.342636108 16.90141 -1.3333334 0.20000021
951 161.552825928 25.352112 0.0 0.20000033
952 161.552825928 25.352112 -0.6666667 0.20000033
959 161.552825928 28.87324 2.0 3.6634515e-07
958 161.552825928 29.577465 0.6666667 3.7528042e-07
447 161.552825928 14.084507 -1.3333334 0.10000018
448 161.552825928 14.084507 -2.0 0.10000018
455 161.552825928 23.943663 -1.3333334 0.2000003
454 161.552825928 24.647888 -2.0 0.20000032
671 159.371643066 23.943663 2.0 3.0379843e-07
672 159.371643066 23.943663 1.3333334 3.0379843e-07
679 159.371643066 22.535212 1.3333334 2.8592794e-07
678 159.371643066 22.535212 2.0 2.8592794e-07
167 159.371643066 4.2253523 0.0 0.10000005
168 159.371643066 4.2253523 -0.6666667 0.10000005
175 159.371643066 1.4084507 0.0 0.10000002
174 159.371643066 2.1126761 -0.6666667 0.10000003
930 159.371704102 33.80282 0.0 0.20000044
931 159.371704102 33.80282 -0.6666667 0.20000044
938 159.371704102 30.985916 -0.6666667 0.20000039
937 159.371704102 30.985916 0.0 0.20000039
426 159.371704102 21.830986 -2.0 0.10000028
427 159.371704102 21.12676 -1.3333334 0.10000027
434 159.371704102 19.014084 -2.0 0.10000024
433 159.371704102 19.014084 -1.3333334 0.10000024
692 156.052276611 19.71831 0.6666667 2.5018693e-07
693 156.052276611 19.014084 2.0 2.4125168e-07
700 156.052276611 23.943663 0.6666667 0.10000031
699 156.052276611 23.943663 1.3333334 0.10000031
188 156.052276611 9.859155 -0.6666667 0.20000012
189 156.052276611 9.154929 0.0 0.20000012
196 156.052276611 7.0422535 -0.6666667 0.20000009
195 156.052276611 7.0422535 0.0 0.20000009
909 156.052505493 30.28169 -0.6666667 0.10000039
910 156.052505493 29.577465 0.0 0.100000374
917 156.052505493 26.760563 0.0 0.100000344
916 156.052505493 27.464788 0.0 0.10000035
405 156.052505493 16.197184 -1.3333334 2.055107e-07
406 156.052505493 16.197184 -2.0 2.055107e-07
413 156.052505493 13.380281 -1.3333334 1.697697e-07
412 156.052505493 14.084507 -2.0 1.7870495e-07
699 168.153076172 23.943663 1.3333334 0.10000031
700 168.153076172 23.943663 0.6666667 0.10000031
707 168.153076172 21.830986 2.0 0.10000028
706 168.153076172 22.535212 0.6666667 0.100000285
195 168.153076172 7.0422535 0.0 0.20000009
196 168.153076172 7.0422535 -0.6666667 0.20000009
203 168.153076172 4.2253523 0.0 0.20000006
202 168.153076172 4.9295774 -0.6666667 0.20000006
1203 161.295501709 39.43662 0.0 0.20000051
1204 161.295501709 39.43662 -0.6666667 0.20000051
1211 161.295501709 38.028168 0.0 0.20000048
1210 161.295501709 38.732395 -2.0 0.2000005
699 161.295501709 23.943663 1.3333334 0.10000031
700 161.295501709 23.943663 0.6666667 0.10000031
707 161.295501709 21.830986 2.0 0.10000028
706 161.295501709 22.535212 0.6666667 0.100000285
902 168.153274536 32.394367 0.0 0.10000041
903 168.153274536 32.394367 -0.6666667 0.10000041
910 168.153274536 29.577465 0.0 0.100000374
909 168.153274536 30.28169 -0.6666667 0.10000039
398 168.153274536 19.014084 -2.0 2.4125168e-07
399 168.153274536 18.309858 -1.3333334 2.3231642e-07
406 168.153274536 16.197184 -2.0 2.055107e-07
405 168.153274536 16.197184 -1.3333334 2.055107e-07
1406 161.295669556 44.366196 -0.6666667 0.20000057
1407 161.295669556 44.366196 -1.3333334 0.20000057
1414 161.295669556 43.661972 -1.3333334 0.20000055
1413 161.295669556 43.661972 -0.6666667 0.20000055
902 161.295669556 32.394367 0.0 0.10000041
903 161.295669556 32.394367 -0.6666667 0.10000041
910 161.295669556 29.577465 0.0 0.100000374
909 161.295669556 30.28169 -0.6666667 0.10000039
706 155.87461853 22.535212 0.6666667 0.100000285
707 155.87461853 21.830986 2.0 0.10000028
714 155.87461853 20.422535 1.3333334 0.10000026
713 155.87461853 20.422535 2.0 0.10000026
202 155.87461853 4.9295774 -0.6666667 0.20000006
203 155.87461853 4.2253523 0.0 0.20000006
210 155.87461853 2.1126761 -0.6666667 0.20000003
209 155.87461853 2.1126761 0.0 0.20000003
888 155.874908447 24.647888 0.0 3.1273368e-07
889 155.874908447 24.647888 -0.6666667 3.1273368e-07
896 155.874908447 34.507042 0.0 0.10000044
895 155.874908447 35.21127 -0.6666667 0.10000045
384 155.874908447 23.943663 -2.0 3.0379843e-07
385 155.874908447 23.239437 -1.3333334 2.9486318e-07
392 155.874908447 21.12676 -2.0 2.6805742e-07
391 155.874908447 21.12676 -1.3333334 2.6805742e-07
1210 138.395050049 38.732395 -2.0 0.2000005
1211 138.395050049 38.028168 0.0 0.20000048
1218 138.395050049 37.323944 -2.0 0.20000048
1217 138.395050049 37.323944 -1.3333334 0.20000048
706 138.395050049 22.535212 0.6666667 0.100000285
707 138.395050049 21.830986 2.0 0.10000028
714 138.395050049 20.422535 1.3333334 0.10000026
713 138.395050049 20.422535 2.0 0.10000026
895 138.398406982 35.21127 -0.6666667 0.10000045
896 138.398406982 34.507042 0.0 0.10000044
903 138.398406982 32.394367 -0.6666667 0.10000041
902 138.398406982 32.394367 0.0 0.10000041
391 138.398406982 21.12676 -1.3333334 2.6805742e-07
392 138.398406982 21.12676 -2.0 2.6805742e-07
399 138.398406982 18.309858 -1.3333334 2.3231642e-07
398 138.398406982 19.014084 -2.0 2.4125168e-07
713 125.366256714 20.422535 2.0 0.10000026
714 125.366256714 20.422535 1.3333334 0.10000026
721 125.366256714 19.014084 0.6666667 0.10000024
720 125.366256714 19.014084 1.3333334 0.10000024
209 125.366256714 2.1126761 0.0 0.20000003
210 125.366256714 2.1126761 -0.6666667 0.20000003
217 125.366256714 6.338028 2.0 8.041723e-08
216 125.366256714 -2.5376103e-09 -0.6666667 0.2
1399 125.369407654 45.070423 -0.6666667 0.20000057
1400 125.369407654 45.070423 -1.3333334 0.20000057
1407 125.369407654 44.366196 -1.3333334 0.20000057
1406 125.369407654 44.366196 -0.6666667 0.20000057
895 125.369407654 35.21127 -0.6666667 0.10000045
896 125.369407654 34.507042 0.0 0.10000044
903 125.369407654 32.394367 -0.6666667 0.10000041
902 125.369407654 32.394367 0.0 0.10000041
1154 124.122383118 42.25352 -2.0 0.10000054
1155 124.122383118 41.549297 0.0 0.10000053
1162 124.122383118 40.84507 -2.0 0.100000516
1161 124.122383118 40.84507 -1.3333334 0.100000516
650 124.122383118 17.605635 0.6666667 0.20000023
651 124.122383118 16.90141 2.0 0.20000021
658 124.122383118 15.492958 1.3333334 0.2000002
657 124.122383118 15.492958 2.0 0.2000002
1476 125.935028076 47.887325 -0.6666667 0.100000605
1477 125.935028076 47.887325 -1.3333334 0.100000605
1484 125.935028076 50.0 0.6666667 0.20000064
1483 125.935028076 50.0 1.3333334 0.20000064
972 125.935028076 26.056337 1.3333334 3.3060417e-07
973 125.935028076 26.056337 0.6666667 3.3060417e-07
980 125.935028076 30.28169 2.0 0.10000039
979 125.935028076 24.647888 0.6666667 3.1273368e-07
1455 124.122711182 50.0 -0.6666667 0.100000635
1456 124.122711182 50.0 -1.3333334 0.100000635
1463 124.122711182 49.295776 -1.3333334 0.10000063
1462 124.122711182 49.295776 -0.6666667 0.10000063
951 124.122711182 25.352112 0.0 0.20000033
952 124.122711182 25.352112 -0.6666667 0.20000033
959 124.122711182 28.87324 2.0 3.6634515e-07
958 124.122711182 29.577465 0.6666667 3.7528042e-07
1175 107.303741455 38.028168 0.0 0.100000486
1176 107.303741455 38.028168 -0.6666667 0.100000486
1183 107.303741455 42.957745 0.0 0.20000055
1182 107.303741455 37.323944 -2.0 0.10000047
671 107.303741455 23.943663 2.0 3.0379843e-07
672 107.303741455 23.943663 1.3333334 3.0379843e-07
679 107.303741455 22.535212 1.3333334 2.8592794e-07
678 107.303741455 22.535212 2.0 2.8592794e-07
1434 107.304710388 48.59155 -0.6666667 6.165321e-07
1435 107.304710388 48.59155 -1.3333334 6.165321e-07
1442 107.304710388 47.887325 -1.3333334 6.0759686e-07
1441 107.304710388 47.887325 -0.6666667 6.0759686e-07
930 107.304710388 33.80282 0.0 0.20000044
931 107.304710388 33.80282 -0.6666667 0.20000044
938 107.304710388 30.985916 -0.6666667 0.20000039
937 107.304710388 30.985916 0.0 0.20000039
1196 115.852210999 40.84507 -0.6666667 0.20000052
1197 115.852210999 40.84507 -1.3333334 0.20000052
1204 115.852210999 39.43662 -0.6666667 0.20000051
1203 115.852210999 39.43662 0.0 0.20000051
692 115.852210999 19.71831 0.6666667 2.5018693e-07
693 115.852210999 19.014084 2.0 2.4125168e-07
700 115.852210999 23.943663 0.6666667 0.10000031
699 115.852210999 23.943663 1.3333334 0.10000031
1413 115.85459137 43.661972 -0.6666667 0.20000055
1414 115.85459137 43.661972 -1.3333334 0.20000055
1421 115.85459137 50.0 -1.3333334 6.3440257e-07
1420 115.85459137 50.0 -0.6666667 6.3440257e-07
909 115.85459137 30.28169 -0.6666667 0.10000039
910 115.85459137 29.577465 0.0 0.100000374
917 115.85459137 26.760563 0.0 0.100000344
916 115.85459137 27.464788 0.0 0.10000035
1217 122.261062622 37.323944 -1.3333334 0.20000048
1218 122.261062622 37.323944 -2.0 0.20000048
1225 122.261062622 41.549297 2.0 5.271796e-07
1224 122.261062622 42.25352 0.6666667 5.3611484e-07
713 122.261062622 20.422535 2.0 0.10000026
714 122.261062622 20.422535 1.3333334 0.10000026
721 122.261062622 19.014084 0.6666667 0.10000024
720 122.261062622 19.014084 1.3333334 0.10000024
1392 122.264053345 45.774647 -0.6666667 0.20000058
1393 122.264053345 45.774647 -1.3333334 0.20000058
1400 122.264053345 45.070423 -1.3333334 0.20000057
1399 122.264053345 45.070423 -0.6666667 0.20000057
888 122.264053345 24.647888 0.0 3.1273368e-07
889 122.264053345 24.647888 -0.6666667 3.1273368e-07
896 122.264053345 34.507042 0.0 0.10000044
895 122.264053345 35.21127 -0.6666667 0.10000045
