Node_ID    S_Mises    Orig.X      Orig.Y      Orig.Z 
556 138.080169678 24.647888 0.0 0.20000032
557 138.080169678 24.647888 -0.6666667 0.20000032
564 138.080169678 21.830986 0.0 0.20000029
563 138.080169678 22.535212 -0.6666667 0.20000029
52 138.080169678 7.0422535 -2.0 0.10000009
53 138.080169678 6.338028 -1.3333334 0.10000008
60 138.080169678 4.2253523 -2.0 0.10000005
59 138.080169678 4.2253523 -1.3333334 0.10000005
550 138.671966553 14.788733 -0.6666667 0.10000019
551 138.671966553 14.084507 0.0 0.10000018
558 138.671966553 23.943663 0.0 0.2000003
557 138.671966553 24.647888 -0.6666667 0.20000032
46 138.671966553 9.154929 -2.0 0.10000012
47 138.671966553 8.450705 -1.3333334 0.100000106
54 138.671966553 6.338028 -2.0 0.10000008
53 138.671966553 6.338028 -1.3333334 0.10000008
843 138.673797607 28.169014 -2.0 0.20000036
844 138.673797607 27.464788 -0.6666667 0.20000035
851 138.673797607 26.056337 -2.0 0.20000033
850 138.673797607 26.056337 -1.3333334 0.20000033
339 138.673797607 10.56338 2.0 0.100000136
340 138.673797607 10.56338 1.3333334 0.100000136
347 138.673797607 9.154929 0.6666667 0.10000012
346 138.673797607 9.154929 1.3333334 0.10000012
850 138.078796387 26.056337 -1.3333334 0.20000033
851 138.078796387 26.056337 -2.0 0.20000033
858 138.078796387 35.21127 0.0 4.467624e-07
857 138.078796387 35.915493 -0.6666667 4.5569763e-07
346 138.078796387 9.154929 1.3333334 0.10000012
347 138.078796387 9.154929 0.6666667 0.10000012
354 138.078796387 7.0422535 2.0 0.10000009
353 138.078796387 7.746479 0.6666667 0.1000001
562 137.916030884 22.535212 0.0 0.20000029
563 137.916030884 22.535212 -0.6666667 0.20000029
570 137.916030884 19.71831 0.0 0.20000026
569 137.916030884 20.422535 -0.6666667 0.20000026
58 137.916030884 4.9295774 -2.0 0.10000006
59 137.916030884 4.2253523 -1.3333334 0.10000005
66 137.916030884 2.1126761 -2.0 0.10000003
65 137.916030884 2.1126761 -1.3333334 0.10000003
836 137.914413452 30.28169 -1.3333334 0.20000039
837 137.914413452 30.28169 -2.0 0.20000039
844 137.914413452 27.464788 -0.6666667 0.20000035
843 137.914413452 28.169014 -2.0 0.20000036
332 137.914413452 12.676056 0.0 0.100000165
333 137.914413452 11.971831 2.0 0.10000015
340 137.914413452 10.56338 1.3333334 0.100000136
339 137.914413452 10.56338 2.0 0.100000136
1048 138.874038696 31.690142 2.0 4.0208616e-07
1049 138.874038696 31.690142 1.3333334 4.0208616e-07
1056 138.874038696 36.619717 0.6666667 0.10000046
1055 138.874038696 36.619717 1.3333334 0.10000046
544 138.874038696 16.90141 -0.6666667 0.10000022
545 138.874038696 16.197184 0.0 0.10000021
552 138.874038696 14.084507 -0.6666667 0.10000018
551 138.874038696 14.084507 0.0 0.10000018
829 138.876266479 33.09859 -2.0 0.20000042
830 138.876266479 32.394367 -1.3333334 0.20000042
837 138.876266479 30.28169 -2.0 0.20000039
836 138.876266479 30.28169 -1.3333334 0.20000039
325 138.876266479 7.746479 1.3333334 9.828773e-08
326 138.876266479 7.746479 0.6666667 9.828773e-08
333 138.876266479 11.971831 2.0 0.10000015
332 138.876266479 12.676056 0.0 0.100000165
542 137.682174683 17.605635 -0.6666667 0.100000225
543 137.682174683 16.90141 0.0 0.10000022
550 137.682174683 14.788733 -0.6666667 0.10000019
549 137.682174683 14.788733 0.0 0.10000019
38 137.682174683 11.971831 -2.0 0.10000015
39 137.682174683 11.267606 -1.3333334 0.10000014
46 137.682174683 9.154929 -2.0 0.10000012
45 137.682174683 9.154929 -1.3333334 0.10000012
822 137.680160522 35.21127 -1.3333334 0.20000045
823 137.680160522 35.21127 -2.0 0.20000045
830 137.680160522 32.394367 -1.3333334 0.20000042
829 137.680160522 33.09859 -2.0 0.20000042
318 137.680160522 9.154929 2.0 1.1615821e-07
319 137.680160522 9.154929 1.3333334 1.1615821e-07
326 137.680160522 7.746479 0.6666667 9.828773e-08
325 137.680160522 7.746479 1.3333334 9.828773e-08
561 139.171127319 23.239437 -0.6666667 0.2000003
562 139.171127319 22.535212 0.0 0.20000029
569 139.171127319 20.422535 -0.6666667 0.20000026
568 139.171127319 20.422535 0.0 0.20000026
57 139.171127319 4.9295774 -1.3333334 0.10000006
58 139.171127319 4.9295774 -2.0 0.10000006
65 139.171127319 2.1126761 -1.3333334 0.10000003
64 139.171127319 2.8169014 -2.0 0.10000004
1270 139.173629761 38.028168 2.0 0.100000486
1271 139.173629761 38.028168 1.3333334 0.100000486
1278 139.173629761 42.957745 0.6666667 0.20000055
1277 139.173629761 42.957745 1.3333334 0.20000055
766 139.173629761 29.577465 -1.3333334 3.7528042e-07
767 139.173629761 29.577465 -2.0 3.7528042e-07
774 139.173629761 26.760563 -1.3333334 3.395394e-07
773 139.173629761 27.464788 -2.0 3.4847466e-07
540 137.365203857 18.309858 -0.6666667 0.10000023
541 137.365203857 17.605635 0.0 0.100000225
548 137.365203857 15.492958 -0.6666667 0.100000195
547 137.365203857 15.492958 0.0 0.100000195
36 137.365203857 0.0 -2.0 0.0
37 137.365203857 11.971831 -1.3333334 0.10000015
44 137.365203857 9.859155 -2.0 0.10000013
43 137.365203857 9.859155 -1.3333334 0.10000013
1277 137.362426758 42.957745 1.3333334 0.20000055
1278 137.362426758 42.957745 0.6666667 0.20000055
1285 137.362426758 40.84507 2.0 0.20000052
1284 137.362426758 41.549297 0.6666667 0.20000052
773 137.362426758 27.464788 -2.0 3.4847466e-07
774 137.362426758 26.760563 -1.3333334 3.395394e-07
781 137.362426758 24.647888 -2.0 3.1273368e-07
780 137.362426758 24.647888 -1.3333334 3.1273368e-07
537 139.604736328 19.014084 0.0 0.10000024
538 139.604736328 19.014084 -0.6666667 0.10000024
545 139.604736328 16.197184 0.0 0.10000021
544 139.604736328 16.90141 -0.6666667 0.10000022
33 139.604736328 0.70422536 -1.3333334 8.935248e-09
34 139.604736328 0.70422536 -2.0 8.935248e-09
41 139.604736328 10.56338 -1.3333334 0.100000136
40 139.604736328 11.267606 -2.0 0.10000014
1275 139.607070923 37.323944 0.6666667 0.10000047
1276 139.607070923 42.957745 2.0 0.20000055
1283 139.607070923 41.549297 1.3333334 0.20000052
1282 139.607070923 41.549297 2.0 0.20000052
771 139.607070923 28.169014 -2.0 3.574099e-07
772 139.607070923 27.464788 -1.3333334 3.4847466e-07
779 139.607070923 25.352112 -2.0 3.2166892e-07
778 139.607070923 25.352112 -1.3333334 3.2166892e-07
536 136.929428101 19.71831 -0.6666667 0.100000255
537 136.929428101 19.014084 0.0 0.10000024
544 136.929428101 16.90141 -0.6666667 0.10000022
543 136.929428101 16.90141 0.0 0.10000022
32 136.929428101 1.4084507 -2.0 1.7870496e-08
33 136.929428101 0.70422536 -1.3333334 8.935248e-09
40 136.929428101 11.267606 -2.0 0.10000014
39 136.929428101 11.267606 -1.3333334 0.10000014
1282 136.9246521 41.549297 2.0 0.20000052
1283 136.9246521 41.549297 1.3333334 0.20000052
1290 136.9246521 40.140846 0.6666667 0.20000051
1289 136.9246521 40.140846 1.3333334 0.20000051
778 136.9246521 25.352112 -1.3333334 3.2166892e-07
779 136.9246521 25.352112 -2.0 3.2166892e-07
786 136.9246521 35.21127 -1.3333334 0.10000045
785 136.9246521 35.915493 -2.0 0.100000456
523 140.142730713 23.943663 0.0 0.10000031
524 140.142730713 23.943663 -0.6666667 0.10000031
531 140.142730713 21.12676 0.0 0.10000027
530 140.142730713 21.830986 -0.6666667 0.10000028
19 140.142730713 5.633803 -1.3333334 7.1481985e-08
20 140.142730713 5.633803 -2.0 7.1481985e-08
27 140.142730713 2.8169014 -1.3333334 3.5740992e-08
26 140.142730713 3.5211267 -2.0 4.4676238e-08
786 140.142990112 35.21127 -1.3333334 0.10000045
787 140.142990112 35.21127 -2.0 0.10000045
794 140.142990112 32.394367 -1.3333334 0.10000041
793 140.142990112 33.09859 -2.0 0.10000042
282 140.142990112 4.9295774 2.0 0.20000006
283 140.142990112 4.9295774 1.3333334 0.20000006
290 140.142990112 3.5211267 0.6666667 0.20000005
289 140.142990112 3.5211267 1.3333334 0.20000005
1025 136.080169678 26.056337 0.6666667 0.20000033
1026 136.080169678 25.352112 2.0 0.20000033
1033 136.080169678 35.21127 2.0 4.467624e-07
1032 136.080169678 35.915493 0.6666667 4.5569763e-07
521 136.080169678 24.647888 0.0 0.100000314
522 136.080169678 24.647888 -0.6666667 0.100000314
529 136.080169678 21.830986 0.0 0.10000028
528 136.080169678 22.535212 -0.6666667 0.100000285
1297 136.069396973 38.028168 2.0 0.20000048
1298 136.069396973 38.028168 1.3333334 0.20000048
1305 136.069396973 46.478874 0.6666667 5.8972637e-07
1304 136.069396973 46.478874 1.3333334 5.8972637e-07
793 136.069396973 33.09859 -2.0 0.10000042
794 136.069396973 32.394367 -1.3333334 0.10000041
801 136.069396973 30.28169 -2.0 0.10000039
800 136.069396973 30.28169 -1.3333334 0.10000039
1019 140.237014771 27.464788 0.6666667 0.20000035
1020 140.237014771 26.760563 2.0 0.20000035
1027 140.237014771 25.352112 1.3333334 0.20000033
1026 140.237014771 25.352112 2.0 0.20000033
515 140.237014771 14.084507 0.0 1.7870495e-07
516 140.237014771 14.084507 -0.6666667 1.7870495e-07
523 140.237014771 23.943663 0.0 0.10000031
522 140.237014771 24.647888 -0.6666667 0.100000314
1304 140.228912354 46.478874 1.3333334 5.8972637e-07
1305 140.228912354 46.478874 0.6666667 5.8972637e-07
1312 140.228912354 45.774647 0.6666667 5.807911e-07
1311 140.228912354 45.774647 1.3333334 5.807911e-07
800 140.228912354 30.28169 -1.3333334 0.10000039
801 140.228912354 30.28169 -2.0 0.10000039
808 140.228912354 27.464788 -0.6666667 0.10000035
807 140.228912354 28.169014 -2.0 0.10000036
534 133.505432129 20.422535 -0.6666667 0.10000026
535 133.505432129 19.71831 0.0 0.100000255
542 133.505432129 17.605635 -0.6666667 0.100000225
541 133.505432129 17.605635 0.0 0.100000225
30 133.505432129 2.1126761 -2.0 2.6805743e-08
31 133.505432129 1.4084507 -1.3333334 1.7870496e-08
38 133.505432129 11.971831 -2.0 0.10000015
37 133.505432129 11.971831 -1.3333334 0.10000015
1311 133.474777222 45.774647 1.3333334 5.807911e-07
1312 133.474777222 45.774647 0.6666667 5.807911e-07
1319 133.474777222 45.070423 0.6666667 5.718559e-07
1318 133.474777222 45.070423 1.3333334 5.718559e-07
807 133.474777222 28.169014 -2.0 0.10000036
808 133.474777222 27.464788 -0.6666667 0.10000035
815 133.474777222 26.056337 -2.0 0.10000033
814 133.474777222 26.056337 -1.3333334 0.10000033
1014 138.343582153 28.169014 2.0 0.20000036
1015 138.343582153 28.169014 1.3333334 0.20000036
1022 138.343582153 26.760563 0.6666667 0.20000035
1021 138.343582153 26.760563 1.3333334 0.20000035
510 138.343582153 16.197184 0.0 2.055107e-07
511 138.343582153 16.197184 -0.6666667 2.055107e-07
518 138.343582153 13.380281 -0.6666667 1.697697e-07
517 138.343582153 13.380281 0.0 1.697697e-07
815 138.310928345 26.056337 -2.0 0.10000033
816 138.310928345 25.352112 -1.3333334 0.10000032
823 138.310928345 35.21127 -2.0 0.20000045
822 138.310928345 35.21127 -1.3333334 0.20000045
311 138.310928345 11.267606 0.6666667 1.4296397e-07
312 138.310928345 10.56338 2.0 1.3402871e-07
319 138.310928345 9.154929 1.3333334 1.1615821e-07
318 138.310928345 9.154929 2.0 1.1615821e-07
1011 127.698860168 28.87324 2.0 0.20000038
1012 127.698860168 28.87324 1.3333334 0.20000038
1019 127.698860168 27.464788 0.6666667 0.20000035
1018 127.698860168 27.464788 1.3333334 0.20000035
507 127.698860168 17.605635 -0.6666667 2.233812e-07
508 127.698860168 16.90141 0.0 2.1444595e-07
515 127.698860168 14.084507 0.0 1.7870495e-07
514 127.698860168 14.788733 -0.6666667 1.876402e-07
762 127.578895569 30.985916 -1.3333334 3.931509e-07
763 127.578895569 30.985916 -2.0 3.931509e-07
770 127.578895569 28.169014 -1.3333334 3.574099e-07
769 127.578895569 28.87324 -2.0 3.6634515e-07
258 127.578895569 3.5211267 2.0 0.100000046
259 127.578895569 3.5211267 1.3333334 0.100000046
266 127.578895569 2.1126761 0.6666667 0.10000003
265 127.578895569 2.1126761 1.3333334 0.10000003
526 138.557113647 23.239437 -0.6666667 0.1000003
527 138.557113647 22.535212 0.0 0.100000285
534 138.557113647 20.422535 -0.6666667 0.10000026
533 138.557113647 20.422535 0.0 0.10000026
22 138.557113647 4.9295774 -2.0 6.254673e-08
23 138.557113647 4.2253523 -1.3333334 5.361149e-08
30 138.557113647 2.1126761 -2.0 2.6805743e-08
29 138.557113647 2.1126761 -1.3333334 2.6805743e-08
1237 138.512268066 38.732395 2.0 4.9143864e-07
1238 138.512268066 38.732395 1.3333334 4.9143864e-07
1245 138.512268066 37.323944 0.6666667 4.7356812e-07
1244 138.512268066 37.323944 1.3333334 4.7356812e-07
733 138.512268066 21.830986 2.0 0.20000029
734 138.512268066 21.830986 1.3333334 0.20000029
741 138.512268066 20.422535 0.6666667 0.20000026
740 138.512268066 20.422535 1.3333334 0.20000026
505 138.563171387 18.309858 -0.6666667 2.3231642e-07
506 138.563171387 17.605635 0.0 2.233812e-07
513 138.563171387 15.492958 -0.6666667 1.9657546e-07
512 138.563171387 15.492958 0.0 1.9657546e-07
1 138.563171387 11.971831 -1.3333334 1.5189921e-07
2 138.563171387 11.971831 -2.0 1.5189921e-07
9 138.563171387 9.154929 -1.3333334 1.1615821e-07
8 138.563171387 9.859155 -2.0 1.2509346e-07
720 138.766983032 19.014084 1.3333334 0.10000024
721 138.766983032 19.014084 0.6666667 0.10000024
728 138.766983032 23.239437 1.3333334 0.2000003
727 138.766983032 23.239437 2.0 0.2000003
216 138.766983032 -2.5376103e-09 -0.6666667 0.2
217 138.766983032 6.338028 2.0 8.041723e-08
224 138.766983032 4.9295774 0.6666667 6.254673e-08
223 138.766983032 4.9295774 1.3333334 6.254673e-08
1009 117.139038086 29.577465 1.3333334 0.20000038
1010 117.139038086 29.577465 0.6666667 0.20000038
1017 117.139038086 27.464788 2.0 0.20000035
1016 117.139038086 28.169014 0.6666667 0.20000036
505 117.139038086 18.309858 -0.6666667 2.3231642e-07
506 117.139038086 17.605635 0.0 2.233812e-07
513 117.139038086 15.492958 -0.6666667 1.9657546e-07
512 117.139038086 15.492958 0.0 1.9657546e-07
533 141.926315308 20.422535 0.0 0.10000026
534 141.926315308 20.422535 -0.6666667 0.10000026
541 141.926315308 17.605635 0.0 0.100000225
540 141.926315308 18.309858 -0.6666667 0.10000023
29 141.926315308 2.1126761 -1.3333334 2.6805743e-08
30 141.926315308 2.1126761 -2.0 2.6805743e-08
37 141.926315308 11.971831 -1.3333334 0.10000015
36 141.926315308 0.0 -2.0 0.0
1224 117.296638489 42.25352 0.6666667 5.3611484e-07
1225 117.296638489 41.549297 2.0 5.271796e-07
1232 117.296638489 40.140846 1.3333334 5.0930913e-07
1231 117.296638489 40.140846 2.0 5.0930913e-07
720 117.296638489 19.014084 1.3333334 0.10000024
721 117.296638489 19.014084 0.6666667 0.10000024
728 117.296638489 23.239437 1.3333334 0.2000003
727 117.296638489 23.239437 2.0 0.2000003
741 141.9193573 20.422535 0.6666667 0.20000026
742 141.9193573 19.71831 2.0 0.20000026
749 141.9193573 35.915493 -2.0 4.5569763e-07
748 141.9193573 35.915493 -1.3333334 4.5569763e-07
237 141.9193573 1.4084507 2.0 1.7870496e-08
238 141.9193573 1.4084507 1.3333334 1.7870496e-08
245 141.9193573 0.0 0.6666667 0.0
244 141.9193573 0.0 1.3333334 0.0
512 113.719863892 15.492958 0.0 1.9657546e-07
513 113.719863892 15.492958 -0.6666667 1.9657546e-07
520 113.719863892 12.676056 -0.6666667 1.6083446e-07
519 113.719863892 12.676056 0.0 1.6083446e-07
8 113.719863892 9.859155 -2.0 1.2509346e-07
9 113.719863892 9.154929 -1.3333334 1.1615821e-07
16 113.719863892 7.0422535 -2.0 8.9352476e-08
15 113.719863892 7.0422535 -1.3333334 8.9352476e-08
1030 134.927566528 35.915493 2.0 4.5569763e-07
1031 134.927566528 35.915493 1.3333334 4.5569763e-07
1038 134.927566528 34.507042 0.6666667 4.3782714e-07
1037 134.927566528 34.507042 1.3333334 4.3782714e-07
526 134.927566528 23.239437 -0.6666667 0.1000003
527 134.927566528 22.535212 0.0 0.100000285
534 134.927566528 20.422535 -0.6666667 0.10000026
533 134.927566528 20.422535 0.0 0.10000026
727 113.854698181 23.239437 2.0 0.2000003
728 113.854698181 23.239437 1.3333334 0.2000003
735 113.854698181 21.830986 0.6666667 0.20000029
734 113.854698181 21.830986 1.3333334 0.20000029
223 113.854698181 4.9295774 1.3333334 6.254673e-08
224 113.854698181 4.9295774 0.6666667 6.254673e-08
231 113.854698181 2.8169014 2.0 3.5740992e-08
230 113.854698181 3.5211267 0.6666667 4.4676238e-08
1245 134.95010376 37.323944 0.6666667 4.7356812e-07
1246 134.95010376 36.619717 2.0 4.6463285e-07
1253 134.95010376 42.25352 1.3333334 0.10000054
1252 134.95010376 42.25352 2.0 0.10000054
741 134.95010376 20.422535 0.6666667 0.20000026
742 134.95010376 19.71831 2.0 0.20000026
749 134.95010376 35.915493 -2.0 4.5569763e-07
748 134.95010376 35.915493 -1.3333334 4.5569763e-07
508 137.015380859 16.90141 0.0 2.1444595e-07
509 137.015380859 16.90141 -0.6666667 2.1444595e-07
516 137.015380859 14.084507 -0.6666667 1.7870495e-07
515 137.015380859 14.084507 0.0 1.7870495e-07
4 137.015380859 11.267606 -2.0 1.4296397e-07
5 137.015380859 10.56338 -1.3333334 1.3402871e-07
12 137.015380859 8.450705 -2.0 1.0722298e-07
11 137.015380859 8.450705 -1.3333334 1.0722298e-07
1259 136.933883667 40.84507 1.3333334 0.100000516
1260 136.933883667 40.84507 0.6666667 0.100000516
1267 136.933883667 38.732395 2.0 0.10000049
1266 136.933883667 39.43662 0.6666667 0.1000005
755 136.933883667 33.80282 -2.0 4.2889192e-07
756 136.933883667 33.09859 -1.3333334 4.1995665e-07
763 136.933883667 30.985916 -2.0 3.931509e-07
762 136.933883667 30.985916 -1.3333334 3.931509e-07
1012 137.498046875 28.87324 1.3333334 0.20000038
1013 137.498046875 28.87324 0.6666667 0.20000038
1020 137.498046875 26.760563 2.0 0.20000035
1019 137.498046875 27.464788 0.6666667 0.20000035
508 137.498046875 16.90141 0.0 2.1444595e-07
509 137.498046875 16.90141 -0.6666667 2.1444595e-07
516 137.498046875 14.084507 -0.6666667 1.7870495e-07
515 137.498046875 14.084507 0.0 1.7870495e-07
813 137.43586731 26.760563 -2.0 0.100000344
814 137.43586731 26.056337 -1.3333334 0.10000033
821 137.43586731 35.915493 -2.0 0.20000046
820 137.43586731 35.915493 -1.3333334 0.20000046
309 137.43586731 11.267606 2.0 1.4296397e-07
310 137.43586731 11.267606 1.3333334 1.4296397e-07
317 137.43586731 9.859155 0.6666667 1.2509346e-07
316 137.43586731 9.859155 1.3333334 1.2509346e-07
513 141.24621582 15.492958 -0.6666667 1.9657546e-07
514 141.24621582 14.788733 -0.6666667 1.876402e-07
521 141.24621582 24.647888 0.0 0.100000314
520 141.24621582 12.676056 -0.6666667 1.6083446e-07
9 141.24621582 9.154929 -1.3333334 1.1615821e-07
10 141.24621582 9.154929 -2.0 1.1615821e-07
17 141.24621582 6.338028 -1.3333334 8.041723e-08
16 141.24621582 7.0422535 -2.0 8.9352476e-08
1319 141.19960022 45.070423 0.6666667 5.718559e-07
1320 141.19960022 45.070423 0.0 5.718559e-07
1327 141.19960022 44.366196 0.0 5.629206e-07
1326 141.19960022 44.366196 0.6666667 5.629206e-07
815 141.19960022 26.056337 -2.0 0.10000033
816 141.19960022 25.352112 -1.3333334 0.10000032
823 141.19960022 35.21127 -2.0 0.20000045
822 141.19960022 35.21127 -1.3333334 0.20000045
1017 144.858154297 27.464788 2.0 0.20000035
1018 144.858154297 27.464788 1.3333334 0.20000035
1025 144.858154297 26.056337 0.6666667 0.20000033
1024 144.858154297 26.056337 1.3333334 0.20000033
513 144.858154297 15.492958 -0.6666667 1.9657546e-07
514 144.858154297 14.788733 -0.6666667 1.876402e-07
521 144.858154297 24.647888 0.0 0.100000314
520 144.858154297 12.676056 -0.6666667 1.6083446e-07
1320 144.808517456 45.070423 0.0 5.718559e-07
1321 144.808517456 45.070423 -0.6666667 5.718559e-07
1328 144.808517456 44.366196 -0.6666667 5.629206e-07
1327 144.808517456 44.366196 0.0 5.629206e-07
816 144.808517456 25.352112 -1.3333334 0.10000032
817 144.808517456 25.352112 -2.0 0.10000032
824 144.808517456 34.507042 -1.3333334 0.20000044
823 144.808517456 35.21127 -2.0 0.20000045
1031 137.024429321 35.915493 1.3333334 4.5569763e-07
1032 137.024429321 35.915493 0.6666667 4.5569763e-07
1039 137.024429321 33.80282 2.0 4.2889192e-07
1038 137.024429321 34.507042 0.6666667 4.3782714e-07
527 137.024429321 22.535212 0.0 0.100000285
528 137.024429321 22.535212 -0.6666667 0.100000285
535 137.024429321 19.71831 0.0 0.100000255
534 137.024429321 20.422535 -0.6666667 0.10000026
808 136.992950439 27.464788 -0.6666667 0.10000035
809 136.992950439 27.464788 -1.3333334 0.10000035
816 136.992950439 25.352112 -1.3333334 0.10000032
815 136.992950439 26.056337 -2.0 0.10000033
304 136.992950439 -2.5376103e-09 1.3333334 0.2
305 136.992950439 -2.5376103e-09 0.6666667 0.2
312 136.992950439 10.56338 2.0 1.3402871e-07
311 136.992950439 11.267606 0.6666667 1.4296397e-07
1038 138.498168945 34.507042 0.6666667 4.3782714e-07
1039 138.498168945 33.80282 2.0 4.2889192e-07
1046 138.498168945 32.394367 1.3333334 4.110214e-07
1045 138.498168945 32.394367 2.0 4.110214e-07
534 138.498168945 20.422535 -0.6666667 0.10000026
535 138.498168945 19.71831 0.0 0.100000255
542 138.498168945 17.605635 -0.6666667 0.100000225
541 138.498168945 17.605635 0.0 0.100000225
516 140.430908203 14.084507 -0.6666667 1.7870495e-07
517 140.430908203 13.380281 0.0 1.697697e-07
524 140.430908203 23.943663 -0.6666667 0.10000031
523 140.430908203 23.943663 0.0 0.10000031
12 140.430908203 8.450705 -2.0 1.0722298e-07
13 140.430908203 7.746479 -1.3333334 9.828773e-08
20 140.430908203 5.633803 -2.0 7.1481985e-08
19 140.430908203 5.633803 -1.3333334 7.1481985e-08
801 140.417861938 30.28169 -2.0 0.10000039
802 140.417861938 29.577465 -1.3333334 0.100000374
809 140.417861938 27.464788 -1.3333334 0.10000035
808 140.417861938 27.464788 -0.6666667 0.10000035
297 140.417861938 1.4084507 2.0 0.20000002
298 140.417861938 1.4084507 1.3333334 0.20000002
305 140.417861938 -2.5376103e-09 0.6666667 0.2
304 140.417861938 -2.5376103e-09 1.3333334 0.2
517 141.548614502 13.380281 0.0 1.697697e-07
518 141.548614502 13.380281 -0.6666667 1.697697e-07
525 141.548614502 23.239437 0.0 0.1000003
524 141.548614502 23.943663 -0.6666667 0.10000031
13 141.548614502 7.746479 -1.3333334 9.828773e-08
14 141.548614502 7.746479 -2.0 9.828773e-08
21 141.548614502 4.9295774 -1.3333334 6.254673e-08
20 141.548614502 5.633803 -2.0 7.1481985e-08
1305 141.533126831 46.478874 0.6666667 5.8972637e-07
1306 141.533126831 46.478874 0.0 5.8972637e-07
1313 141.533126831 45.774647 0.0 5.807911e-07
1312 141.533126831 45.774647 0.6666667 5.807911e-07
801 141.533126831 30.28169 -2.0 0.10000039
802 141.533126831 29.577465 -1.3333334 0.100000374
809 141.533126831 27.464788 -1.3333334 0.10000035
808 141.533126831 27.464788 -0.6666667 0.10000035
528 136.951400757 22.535212 -0.6666667 0.100000285
529 136.951400757 21.830986 0.0 0.10000028
536 136.951400757 19.71831 -0.6666667 0.100000255
535 136.951400757 19.71831 0.0 0.100000255
24 136.951400757 4.2253523 -2.0 5.361149e-08
25 136.951400757 3.5211267 -1.3333334 4.4676238e-08
32 136.951400757 1.4084507 -2.0 1.7870496e-08
31 136.951400757 1.4084507 -1.3333334 1.7870496e-08
794 136.938232422 32.394367 -1.3333334 0.10000041
795 136.938232422 32.394367 -2.0 0.10000041
802 136.938232422 29.577465 -1.3333334 0.100000374
801 136.938232422 30.28169 -2.0 0.10000039
290 136.938232422 3.5211267 0.6666667 0.20000005
291 136.938232422 2.8169014 2.0 0.20000003
298 136.938232422 1.4084507 1.3333334 0.20000002
297 136.938232422 1.4084507 2.0 0.20000002
795 137.207168579 32.394367 -2.0 0.10000041
796 137.207168579 31.690142 -1.3333334 0.100000404
803 137.207168579 29.577465 -2.0 0.100000374
802 137.207168579 29.577465 -1.3333334 0.100000374
291 137.207168579 2.8169014 2.0 0.20000003
292 137.207168579 2.8169014 1.3333334 0.20000003
299 137.207168579 1.4084507 0.6666667 0.20000002
298 137.207168579 1.4084507 1.3333334 0.20000002
524 139.706604004 23.943663 -0.6666667 0.10000031
525 139.706604004 23.239437 0.0 0.1000003
532 139.706604004 21.12676 -0.6666667 0.10000027
531 139.706604004 21.12676 0.0 0.10000027
20 139.706604004 5.633803 -2.0 7.1481985e-08
21 139.706604004 4.9295774 -1.3333334 6.254673e-08
28 139.706604004 2.8169014 -2.0 3.5740992e-08
27 139.706604004 2.8169014 -1.3333334 3.5740992e-08
1290 139.703903198 40.140846 0.6666667 0.20000051
1291 139.703903198 39.43662 2.0 0.20000051
1298 139.703903198 38.028168 1.3333334 0.20000048
1297 139.703903198 38.028168 2.0 0.20000048
786 139.703903198 35.21127 -1.3333334 0.10000045
787 139.703903198 35.21127 -2.0 0.10000045
794 139.703903198 32.394367 -1.3333334 0.10000041
793 139.703903198 33.09859 -2.0 0.10000042
1027 139.866287231 25.352112 1.3333334 0.20000033
1028 139.866287231 25.352112 0.6666667 0.20000033
1035 139.866287231 35.21127 0.6666667 4.467624e-07
1034 139.866287231 35.21127 1.3333334 4.467624e-07
523 139.866287231 23.943663 0.0 0.10000031
524 139.866287231 23.943663 -0.6666667 0.10000031
531 139.866287231 21.12676 0.0 0.10000027
530 139.866287231 21.830986 -0.6666667 0.10000028
787 139.861068726 35.21127 -2.0 0.10000045
788 139.861068726 34.507042 -1.3333334 0.10000044
795 139.861068726 32.394367 -2.0 0.10000041
794 139.861068726 32.394367 -1.3333334 0.10000041
283 139.861068726 4.9295774 1.3333334 0.20000006
284 139.861068726 4.9295774 0.6666667 0.20000006
291 139.861068726 2.8169014 2.0 0.20000003
290 139.861068726 3.5211267 0.6666667 0.20000005
1040 137.235595703 33.80282 1.3333334 4.2889192e-07
1041 137.235595703 33.80282 0.6666667 4.2889192e-07
1048 137.235595703 31.690142 2.0 4.0208616e-07
1047 137.235595703 32.394367 0.6666667 4.110214e-07
536 137.235595703 19.71831 -0.6666667 0.100000255
537 137.235595703 19.014084 0.0 0.10000024
544 137.235595703 16.90141 -0.6666667 0.10000022
543 137.235595703 16.90141 0.0 0.10000022
779 137.229064941 25.352112 -2.0 3.2166892e-07
780 137.229064941 24.647888 -1.3333334 3.1273368e-07
787 137.229064941 35.21127 -2.0 0.10000045
786 137.229064941 35.21127 -1.3333334 0.10000045
275 137.229064941 -1.2688052e-09 0.6666667 0.1
276 137.229064941 6.338028 2.0 0.20000008
283 137.229064941 4.9295774 1.3333334 0.20000006
282 137.229064941 4.9295774 2.0 0.20000006
530 137.214370728 21.830986 -0.6666667 0.10000028
531 137.214370728 21.12676 0.0 0.10000027
538 137.214370728 19.014084 -0.6666667 0.10000024
537 137.214370728 19.014084 0.0 0.10000024
26 137.214370728 3.5211267 -2.0 4.4676238e-08
27 137.214370728 2.8169014 -1.3333334 3.5740992e-08
34 137.214370728 0.70422536 -2.0 8.935248e-09
33 137.214370728 0.70422536 -1.3333334 8.935248e-09
538 139.281341553 19.014084 -0.6666667 0.10000024
539 139.281341553 18.309858 0.0 0.10000023
546 139.281341553 16.197184 -0.6666667 0.10000021
545 139.281341553 16.197184 0.0 0.10000021
34 139.281341553 0.70422536 -2.0 8.935248e-09
35 139.281341553 0.0 -1.3333334 0.0
42 139.281341553 10.56338 -2.0 0.100000136
41 139.281341553 10.56338 -1.3333334 0.100000136
764 139.281707764 30.28169 -1.3333334 3.8421567e-07
765 139.281707764 30.28169 -2.0 3.8421567e-07
772 139.281707764 27.464788 -1.3333334 3.4847466e-07
771 139.281707764 28.169014 -2.0 3.574099e-07
260 139.281707764 3.5211267 0.6666667 0.100000046
261 139.281707764 2.8169014 2.0 0.10000004
268 139.281707764 1.4084507 1.3333334 0.10000002
267 139.281707764 1.4084507 2.0 0.10000002
1041 139.269714355 33.80282 0.6666667 4.2889192e-07
1042 139.269714355 33.09859 2.0 4.1995665e-07
1049 139.269714355 31.690142 1.3333334 4.0208616e-07
1048 139.269714355 31.690142 2.0 4.0208616e-07
537 139.269714355 19.014084 0.0 0.10000024
538 139.269714355 19.014084 -0.6666667 0.10000024
545 139.269714355 16.197184 0.0 0.10000021
544 139.269714355 16.90141 -0.6666667 0.10000022
1268 139.268112183 38.732395 1.3333334 0.10000049
1269 139.268112183 38.732395 0.6666667 0.10000049
1276 139.268112183 42.957745 2.0 0.20000055
1275 139.268112183 37.323944 0.6666667 0.10000047
764 139.268112183 30.28169 -1.3333334 3.8421567e-07
765 139.268112183 30.28169 -2.0 3.8421567e-07
772 139.268112183 27.464788 -1.3333334 3.4847466e-07
771 139.268112183 28.169014 -2.0 3.574099e-07
1044 137.556304932 33.09859 0.6666667 4.1995665e-07
1045 137.556304932 32.394367 2.0 4.110214e-07
1052 137.556304932 30.985916 1.3333334 3.931509e-07
1051 137.556304932 30.985916 2.0 3.931509e-07
540 137.556304932 18.309858 -0.6666667 0.10000023
541 137.556304932 17.605635 0.0 0.100000225
548 137.556304932 15.492958 -0.6666667 0.100000195
547 137.556304932 15.492958 0.0 0.100000195
765 137.552429199 30.28169 -2.0 3.8421567e-07
766 137.552429199 29.577465 -1.3333334 3.7528042e-07
773 137.552429199 27.464788 -2.0 3.4847466e-07
772 137.552429199 27.464788 -1.3333334 3.4847466e-07
261 137.552429199 2.8169014 2.0 0.10000004
262 137.552429199 2.8169014 1.3333334 0.10000004
269 137.552429199 1.4084507 0.6666667 0.10000002
268 137.552429199 1.4084507 1.3333334 0.10000002
547 137.543060303 15.492958 0.0 0.100000195
548 137.543060303 15.492958 -0.6666667 0.100000195
555 137.543060303 12.676056 -0.6666667 0.100000165
554 137.543060303 13.380281 -0.6666667 0.10000017
43 137.543060303 9.859155 -1.3333334 0.10000013
44 137.543060303 9.859155 -2.0 0.10000013
51 137.543060303 7.0422535 -1.3333334 0.10000009
50 137.543060303 7.746479 -2.0 0.1000001
1269 137.539276123 38.732395 0.6666667 0.10000049
1270 137.539276123 38.028168 2.0 0.100000486
1277 137.539276123 42.957745 1.3333334 0.20000055
1276 137.539276123 42.957745 2.0 0.20000055
765 137.539276123 30.28169 -2.0 3.8421567e-07
766 137.539276123 29.577465 -1.3333334 3.7528042e-07
773 137.539276123 27.464788 -2.0 3.4847466e-07
772 137.539276123 27.464788 -1.3333334 3.4847466e-07
1065 138.985748291 34.507042 0.6666667 0.10000044
1066 138.985748291 33.80282 2.0 0.100000426
1073 138.985748291 32.394367 1.3333334 0.10000041
1072 138.985748291 32.394367 2.0 0.10000041
561 138.985748291 23.239437 -0.6666667 0.2000003
562 138.985748291 22.535212 0.0 0.20000029
569 138.985748291 20.422535 -0.6666667 0.20000026
568 138.985748291 20.422535 0.0 0.20000026
1263 138.986923218 40.140846 0.6666667 0.10000051
1264 138.986923218 39.43662 2.0 0.1000005
1271 138.986923218 38.028168 1.3333334 0.100000486
1270 138.986923218 38.028168 2.0 0.100000486
759 138.986923218 32.394367 -2.0 4.110214e-07
760 138.986923218 31.690142 -1.3333334 4.0208616e-07
767 138.986923218 29.577465 -2.0 3.7528042e-07
766 138.986923218 29.577465 -1.3333334 3.7528042e-07
568 138.966033936 20.422535 0.0 0.20000026
569 138.966033936 20.422535 -0.6666667 0.20000026
576 138.966033936 17.605635 0.0 0.20000023
575 138.966033936 18.309858 -0.6666667 0.20000024
64 138.966033936 2.8169014 -2.0 0.10000004
65 138.966033936 2.1126761 -1.3333334 0.10000003
72 138.966033936 -1.2688052e-09 -2.0 0.1
71 138.966033936 -1.2688052e-09 -1.3333334 0.1
820 138.965774536 35.915493 -1.3333334 0.20000046
821 138.965774536 35.915493 -2.0 0.20000046
828 138.965774536 33.09859 -1.3333334 0.20000042
827 138.965774536 33.80282 -2.0 0.20000044
316 138.965774536 9.859155 1.3333334 1.2509346e-07
317 138.965774536 9.859155 0.6666667 1.2509346e-07
324 138.965774536 7.746479 2.0 9.828773e-08
323 138.965774536 8.450705 0.6666667 1.0722298e-07
1046 137.811599731 32.394367 1.3333334 4.110214e-07
1047 137.811599731 32.394367 0.6666667 4.110214e-07
1054 137.811599731 36.619717 2.0 0.10000046
1053 137.811599731 30.985916 0.6666667 3.931509e-07
542 137.811599731 17.605635 -0.6666667 0.100000225
543 137.811599731 16.90141 0.0 0.10000022
550 137.811599731 14.788733 -0.6666667 0.10000019
549 137.811599731 14.788733 0.0 0.10000019
1326 137.808959961 44.366196 0.6666667 5.629206e-07
1327 137.808959961 44.366196 0.0 5.629206e-07
1334 137.808959961 43.661972 0.0 5.539854e-07
1333 137.808959961 43.661972 0.6666667 5.539854e-07
822 137.808959961 35.21127 -1.3333334 0.20000045
823 137.808959961 35.21127 -2.0 0.20000045
830 137.808959961 32.394367 -1.3333334 0.20000042
829 137.808959961 33.09859 -2.0 0.20000042
543 137.819824219 16.90141 0.0 0.10000022
544 137.819824219 16.90141 -0.6666667 0.10000022
551 137.819824219 14.084507 0.0 0.10000018
550 137.819824219 14.788733 -0.6666667 0.10000019
39 137.819824219 11.267606 -1.3333334 0.10000014
40 137.819824219 11.267606 -2.0 0.10000014
47 137.819824219 8.450705 -1.3333334 0.100000106
46 137.819824219 9.154929 -2.0 0.10000012
827 137.817367554 33.80282 -2.0 0.20000044
828 137.817367554 33.09859 -1.3333334 0.20000042
835 137.817367554 30.985916 -2.0 0.20000039
834 137.817367554 30.985916 -1.3333334 0.20000039
323 137.817367554 8.450705 0.6666667 1.0722298e-07
324 137.817367554 7.746479 2.0 9.828773e-08
331 137.817367554 12.676056 0.6666667 0.100000165
330 137.817367554 6.338028 0.6666667 8.041723e-08
1049 138.766891479 31.690142 1.3333334 4.0208616e-07
1050 138.766891479 31.690142 0.6666667 4.0208616e-07
1057 138.766891479 35.915493 2.0 0.100000456
1056 138.766891479 36.619717 0.6666667 0.10000046
545 138.766891479 16.197184 0.0 0.10000021
546 138.766891479 16.197184 -0.6666667 0.10000021
553 138.766891479 13.380281 0.0 0.10000017
552 138.766891479 14.084507 -0.6666667 0.10000018
1333 138.768188477 43.661972 0.6666667 5.539854e-07
1334 138.768188477 43.661972 0.0 5.539854e-07
1341 138.768188477 47.183098 0.0 0.1000006
1340 138.768188477 47.183098 0.6666667 0.1000006
829 138.768188477 33.09859 -2.0 0.20000042
830 138.768188477 32.394367 -1.3333334 0.20000042
837 138.768188477 30.28169 -2.0 0.20000039
836 138.768188477 30.28169 -1.3333334 0.20000039
834 138.751968384 30.985916 -1.3333334 0.20000039
835 138.751968384 30.985916 -2.0 0.20000039
842 138.751968384 28.169014 -1.3333334 0.20000036
841 138.751968384 28.87324 -2.0 0.20000038
330 138.751968384 6.338028 0.6666667 8.041723e-08
331 138.751968384 12.676056 0.6666667 0.100000165
338 138.751968384 11.267606 0.6666667 0.10000014
337 138.751968384 11.267606 1.3333334 0.10000014
1066 137.997848511 33.80282 2.0 0.100000426
1067 137.997848511 33.80282 1.3333334 0.100000426
1074 137.997848511 32.394367 0.6666667 0.10000041
1073 137.997848511 32.394367 1.3333334 0.10000041
562 137.997848511 22.535212 0.0 0.20000029
563 137.997848511 22.535212 -0.6666667 0.20000029
570 137.997848511 19.71831 0.0 0.20000026
569 137.997848511 20.422535 -0.6666667 0.20000026
1340 137.995910645 47.183098 0.6666667 0.1000006
1341 137.995910645 47.183098 0.0 0.1000006
1348 137.995910645 46.478874 -2.0 0.10000059
1347 137.995910645 46.478874 -1.3333334 0.10000059
836 137.995910645 30.28169 -1.3333334 0.20000039
837 137.995910645 30.28169 -2.0 0.20000039
844 137.995910645 27.464788 -0.6666667 0.20000035
843 137.995910645 28.169014 -2.0 0.20000036
569 138.010681152 20.422535 -0.6666667 0.20000026
570 138.010681152 19.71831 0.0 0.20000026
577 138.010681152 17.605635 -0.6666667 0.20000023
576 138.010681152 17.605635 0.0 0.20000023
65 138.010681152 2.1126761 -1.3333334 0.10000003
66 138.010681152 2.1126761 -2.0 0.10000003
73 138.010681152 11.971831 -1.3333334 0.20000015
72 138.010681152 -1.2688052e-09 -2.0 0.1
1054 138.608261108 36.619717 2.0 0.10000046
1055 138.608261108 36.619717 1.3333334 0.10000046
1062 138.608261108 35.21127 0.6666667 0.10000045
1061 138.608261108 35.21127 1.3333334 0.10000045
550 138.608261108 14.788733 -0.6666667 0.10000019
551 138.608261108 14.084507 0.0 0.10000018
558 138.608261108 23.943663 0.0 0.2000003
557 138.608261108 24.647888 -0.6666667 0.20000032
1347 138.609451294 46.478874 -1.3333334 0.10000059
1348 138.609451294 46.478874 -2.0 0.10000059
1355 138.609451294 45.774647 -2.0 0.10000058
1354 138.609451294 45.774647 -1.3333334 0.10000058
843 138.609451294 28.169014 -2.0 0.20000036
844 138.609451294 27.464788 -0.6666667 0.20000035
851 138.609451294 26.056337 -2.0 0.20000033
850 138.609451294 26.056337 -1.3333334 0.20000033
848 138.596862793 26.760563 -1.3333334 0.20000035
849 138.596862793 26.760563 -2.0 0.20000035
856 138.596862793 35.915493 0.0 4.5569763e-07
855 138.596862793 36.619717 -0.6666667 4.6463285e-07
344 138.596862793 9.859155 0.6666667 0.10000013
345 138.596862793 9.154929 2.0 0.10000012
352 138.596862793 7.746479 1.3333334 0.1000001
351 138.596862793 7.746479 2.0 0.1000001
1060 138.129455566 35.21127 2.0 0.10000045
1061 138.129455566 35.21127 1.3333334 0.10000045
1068 138.129455566 33.80282 0.6666667 0.100000426
1067 138.129455566 33.80282 1.3333334 0.100000426
556 138.129455566 24.647888 0.0 0.20000032
557 138.129455566 24.647888 -0.6666667 0.20000032
564 138.129455566 21.830986 0.0 0.20000029
563 138.129455566 22.535212 -0.6666667 0.20000029
851 138.127960205 26.056337 -2.0 0.20000033
852 138.127960205 25.352112 -1.3333334 0.20000033
859 138.127960205 35.21127 -0.6666667 4.467624e-07
858 138.127960205 35.21127 0.0 4.467624e-07
347 138.127960205 9.154929 0.6666667 0.10000012
348 138.127960205 8.450705 2.0 0.100000106
355 138.127960205 7.0422535 1.3333334 0.10000009
354 138.127960205 7.0422535 2.0 0.10000009
563 138.139938354 22.535212 -0.6666667 0.20000029
564 138.139938354 21.830986 0.0 0.20000029
571 138.139938354 19.71831 -0.6666667 0.20000026
570 138.139938354 19.71831 0.0 0.20000026
59 138.139938354 4.2253523 -1.3333334 0.10000005
60 138.139938354 4.2253523 -2.0 0.10000005
67 138.139938354 1.4084507 -1.3333334 0.10000002
66 138.139938354 2.1126761 -2.0 0.10000003
1354 138.138641357 45.774647 -1.3333334 0.10000058
1355 138.138641357 45.774647 -2.0 0.10000058
1362 138.138641357 45.070423 -2.0 0.100000575
1361 138.138641357 45.070423 -1.3333334 0.100000575
850 138.138641357 26.056337 -1.3333334 0.20000033
851 138.138641357 26.056337 -2.0 0.20000033
858 138.138641357 35.21127 0.0 4.467624e-07
857 138.138641357 35.915493 -0.6666667 4.5569763e-07
531 137.214370728 21.12676 0.0 0.10000027
532 137.214370728 21.12676 -0.6666667 0.10000027
539 137.214370728 18.309858 0.0 0.10000023
538 137.214370728 19.014084 -0.6666667 0.10000024
27 137.214370728 2.8169014 -1.3333334 3.5740992e-08
28 137.214370728 2.8169014 -2.0 3.5740992e-08
35 137.214370728 0.0 -1.3333334 0.0
34 137.214370728 0.70422536 -2.0 8.935248e-09
1028 139.866287231 25.352112 0.6666667 0.20000033
1029 139.866287231 24.647888 2.0 0.20000032
1036 139.866287231 34.507042 2.0 4.3782714e-07
1035 139.866287231 35.21127 0.6666667 4.467624e-07
524 139.866287231 23.943663 -0.6666667 0.10000031
525 139.866287231 23.239437 0.0 0.1000003
532 139.866287231 21.12676 -0.6666667 0.10000027
531 139.866287231 21.12676 0.0 0.10000027
1283 137.207809448 41.549297 1.3333334 0.20000052
1284 137.207809448 41.549297 0.6666667 0.20000052
1291 137.207809448 39.43662 2.0 0.20000051
1290 137.207809448 40.140846 0.6666667 0.20000051
779 137.207809448 25.352112 -2.0 3.2166892e-07
780 137.207809448 24.647888 -1.3333334 3.1273368e-07
787 137.207809448 35.21127 -2.0 0.10000045
786 137.207809448 35.21127 -1.3333334 0.10000045
1291 139.861083984 39.43662 2.0 0.20000051
1292 139.861083984 39.43662 1.3333334 0.20000051
1299 139.861083984 38.028168 0.6666667 0.20000048
1298 139.861083984 38.028168 1.3333334 0.20000048
787 139.861083984 35.21127 -2.0 0.10000045
788 139.861083984 34.507042 -1.3333334 0.10000044
795 139.861083984 32.394367 -2.0 0.10000041
794 139.861083984 32.394367 -1.3333334 0.10000041
1034 137.235595703 35.21127 1.3333334 4.467624e-07
1035 137.235595703 35.21127 0.6666667 4.467624e-07
1042 137.235595703 33.09859 2.0 4.1995665e-07
1041 137.235595703 33.80282 0.6666667 4.2889192e-07
530 137.235595703 21.830986 -0.6666667 0.10000028
531 137.235595703 21.12676 0.0 0.10000027
538 137.235595703 19.014084 -0.6666667 0.10000024
537 137.235595703 19.014084 0.0 0.10000024
529 139.706604004 21.830986 0.0 0.10000028
530 139.706604004 21.830986 -0.6666667 0.10000028
537 139.706604004 19.014084 0.0 0.10000024
536 139.706604004 19.71831 -0.6666667 0.100000255
25 139.706604004 3.5211267 -1.3333334 4.4676238e-08
26 139.706604004 3.5211267 -2.0 4.4676238e-08
33 139.706604004 0.70422536 -1.3333334 8.935248e-09
32 139.706604004 1.4084507 -2.0 1.7870496e-08
1292 139.703903198 39.43662 1.3333334 0.20000051
1293 139.703903198 39.43662 0.6666667 0.20000051
1300 139.703903198 37.323944 2.0 0.20000048
1299 139.703903198 38.028168 0.6666667 0.20000048
788 139.703903198 34.507042 -1.3333334 0.10000044
789 139.703903198 34.507042 -2.0 0.10000044
796 139.703903198 31.690142 -1.3333334 0.100000404
795 139.703903198 32.394367 -2.0 0.10000041
535 137.220687866 19.71831 0.0 0.100000255
536 137.220687866 19.71831 -0.6666667 0.100000255
543 137.220687866 16.90141 0.0 0.10000022
542 137.220687866 17.605635 -0.6666667 0.100000225
31 137.220687866 1.4084507 -1.3333334 1.7870496e-08
32 137.220687866 1.4084507 -2.0 1.7870496e-08
39 137.220687866 11.267606 -1.3333334 0.10000014
38 137.220687866 11.971831 -2.0 0.10000015
1032 137.220687866 35.915493 0.6666667 4.5569763e-07
1033 137.220687866 35.21127 2.0 4.467624e-07
1040 137.220687866 33.80282 1.3333334 4.2889192e-07
1039 137.220687866 33.80282 2.0 4.2889192e-07
528 137.220687866 22.535212 -0.6666667 0.100000285
529 137.220687866 21.830986 0.0 0.10000028
536 137.220687866 19.71831 -0.6666667 0.100000255
535 137.220687866 19.71831 0.0 0.100000255
1298 137.207168579 38.028168 1.3333334 0.20000048
1299 137.207168579 38.028168 0.6666667 0.20000048
1306 137.207168579 46.478874 0.0 5.8972637e-07
1305 137.207168579 46.478874 0.6666667 5.8972637e-07
794 137.207168579 32.394367 -1.3333334 0.10000041
795 137.207168579 32.394367 -2.0 0.10000041
802 137.207168579 29.577465 -1.3333334 0.100000374
801 137.207168579 30.28169 -2.0 0.10000039
522 136.951400757 24.647888 -0.6666667 0.100000314
523 136.951400757 23.943663 0.0 0.10000031
530 136.951400757 21.830986 -0.6666667 0.10000028
529 136.951400757 21.830986 0.0 0.10000028
18 136.951400757 6.338028 -2.0 8.041723e-08
19 136.951400757 5.633803 -1.3333334 7.1481985e-08
26 136.951400757 3.5211267 -2.0 4.4676238e-08
25 136.951400757 3.5211267 -1.3333334 4.4676238e-08
785 136.938232422 35.915493 -2.0 0.100000456
786 136.938232422 35.21127 -1.3333334 0.10000045
793 136.938232422 33.09859 -2.0 0.10000042
792 136.938232422 33.09859 -1.3333334 0.10000042
281 136.938232422 5.633803 0.6666667 0.20000008
282 136.938232422 4.9295774 2.0 0.20000006
289 136.938232422 3.5211267 1.3333334 0.20000005
288 136.938232422 3.5211267 2.0 0.20000005
1035 136.929443359 35.21127 0.6666667 4.467624e-07
1036 136.929443359 34.507042 2.0 4.3782714e-07
1043 136.929443359 33.09859 1.3333334 4.1995665e-07
1042 136.929443359 33.09859 2.0 4.1995665e-07
531 136.929443359 21.12676 0.0 0.10000027
532 136.929443359 21.12676 -0.6666667 0.10000027
539 136.929443359 18.309858 0.0 0.10000023
538 136.929443359 19.014084 -0.6666667 0.10000024
1033 140.142730713 35.21127 2.0 4.467624e-07
1034 140.142730713 35.21127 1.3333334 4.467624e-07
1041 140.142730713 33.80282 0.6666667 4.2889192e-07
1040 140.142730713 33.80282 1.3333334 4.2889192e-07
529 140.142730713 21.830986 0.0 0.10000028
530 140.142730713 21.830986 -0.6666667 0.10000028
537 140.142730713 19.014084 0.0 0.10000024
536 140.142730713 19.71831 -0.6666667 0.100000255
778 140.142990112 25.352112 -1.3333334 3.2166892e-07
779 140.142990112 25.352112 -2.0 3.2166892e-07
786 140.142990112 35.21127 -1.3333334 0.10000045
785 140.142990112 35.915493 -2.0 0.100000456
274 140.142990112 -1.2688052e-09 1.3333334 0.1
275 140.142990112 -1.2688052e-09 0.6666667 0.1
282 140.142990112 4.9295774 2.0 0.20000006
281 140.142990112 5.633803 0.6666667 0.20000008
771 136.9246521 28.169014 -2.0 3.574099e-07
772 136.9246521 27.464788 -1.3333334 3.4847466e-07
779 136.9246521 25.352112 -2.0 3.2166892e-07
778 136.9246521 25.352112 -1.3333334 3.2166892e-07
267 136.9246521 1.4084507 2.0 0.10000002
268 136.9246521 1.4084507 1.3333334 0.10000002
275 136.9246521 -1.2688052e-09 0.6666667 0.1
274 136.9246521 -1.2688052e-09 1.3333334 0.1
1026 136.080169678 25.352112 2.0 0.20000033
1027 136.080169678 25.352112 1.3333334 0.20000033
1034 136.080169678 35.21127 1.3333334 4.467624e-07
1033 136.080169678 35.21127 2.0 4.467624e-07
522 136.080169678 24.647888 -0.6666667 0.100000314
523 136.080169678 23.943663 0.0 0.10000031
530 136.080169678 21.830986 -0.6666667 0.10000028
529 136.080169678 21.830986 0.0 0.10000028
1289 136.069396973 40.140846 1.3333334 0.20000051
1290 136.069396973 40.140846 0.6666667 0.20000051
1297 136.069396973 38.028168 2.0 0.20000048
1296 136.069396973 38.732395 0.6666667 0.2000005
785 136.069396973 35.915493 -2.0 0.100000456
786 136.069396973 35.21127 -1.3333334 0.10000045
793 136.069396973 33.09859 -2.0 0.10000042
792 136.069396973 33.09859 -1.3333334 0.10000042
1020 141.548614502 26.760563 2.0 0.20000035
1021 141.548614502 26.760563 1.3333334 0.20000035
1028 141.548614502 25.352112 0.6666667 0.20000033
1027 141.548614502 25.352112 1.3333334 0.20000033
516 141.548614502 14.084507 -0.6666667 1.7870495e-07
517 141.548614502 13.380281 0.0 1.697697e-07
524 141.548614502 23.943663 -0.6666667 0.10000031
523 141.548614502 23.943663 0.0 0.10000031
792 141.533111572 33.09859 -1.3333334 0.10000042
793 141.533111572 33.09859 -2.0 0.10000042
800 141.533111572 30.28169 -1.3333334 0.10000039
799 141.533111572 30.985916 -2.0 0.1000004
288 141.533111572 3.5211267 2.0 0.20000005
289 141.533111572 3.5211267 1.3333334 0.20000005
296 141.533111572 2.1126761 0.6666667 0.20000003
295 141.533111572 2.1126761 1.3333334 0.20000003
1021 140.430892944 26.760563 1.3333334 0.20000035
1022 140.430892944 26.760563 0.6666667 0.20000035
1029 140.430892944 24.647888 2.0 0.20000032
1028 140.430892944 25.352112 0.6666667 0.20000033
517 140.430892944 13.380281 0.0 1.697697e-07
518 140.430892944 13.380281 -0.6666667 1.697697e-07
525 140.430892944 23.239437 0.0 0.1000003
524 140.430892944 23.943663 -0.6666667 0.10000031
1296 140.417861938 38.732395 0.6666667 0.2000005
1297 140.417861938 38.028168 2.0 0.20000048
1304 140.417861938 46.478874 1.3333334 5.8972637e-07
1303 140.417861938 46.478874 2.0 5.8972637e-07
792 140.417861938 33.09859 -1.3333334 0.10000042
793 140.417861938 33.09859 -2.0 0.10000042
800 140.417861938 30.28169 -1.3333334 0.10000039
799 140.417861938 30.985916 -2.0 0.1000004
521 140.236999512 24.647888 0.0 0.100000314
522 140.236999512 24.647888 -0.6666667 0.100000314
529 140.236999512 21.830986 0.0 0.10000028
528 140.236999512 22.535212 -0.6666667 0.100000285
17 140.236999512 6.338028 -1.3333334 8.041723e-08
18 140.236999512 6.338028 -2.0 8.041723e-08
25 140.236999512 3.5211267 -1.3333334 4.4676238e-08
24 140.236999512 4.2253523 -2.0 5.361149e-08
793 140.228912354 33.09859 -2.0 0.10000042
794 140.228912354 32.394367 -1.3333334 0.10000041
801 140.228912354 30.28169 -2.0 0.10000039
800 140.228912354 30.28169 -1.3333334 0.10000039
289 140.228912354 3.5211267 1.3333334 0.20000005
290 140.228912354 3.5211267 0.6666667 0.20000005
297 140.228912354 1.4084507 2.0 0.20000002
296 140.228912354 2.1126761 0.6666667 0.20000003
514 138.498168945 14.788733 -0.6666667 1.876402e-07
515 138.498168945 14.084507 0.0 1.7870495e-07
522 138.498168945 24.647888 -0.6666667 0.100000314
521 138.498168945 24.647888 0.0 0.100000314
10 138.498168945 9.154929 -2.0 1.1615821e-07
11 138.498168945 8.450705 -1.3333334 1.0722298e-07
18 138.498168945 6.338028 -2.0 8.041723e-08
17 138.498168945 6.338028 -1.3333334 8.041723e-08
1312 138.466262817 45.774647 0.6666667 5.807911e-07
1313 138.466262817 45.774647 0.0 5.807911e-07
1320 138.466262817 45.070423 0.0 5.718559e-07
1319 138.466262817 45.070423 0.6666667 5.718559e-07
808 138.466262817 27.464788 -0.6666667 0.10000035
809 138.466262817 27.464788 -1.3333334 0.10000035
816 138.466262817 25.352112 -1.3333334 0.10000032
815 138.466262817 26.056337 -2.0 0.10000033
799 138.466262817 30.985916 -2.0 0.1000004
800 138.466262817 30.28169 -1.3333334 0.10000039
807 138.466262817 28.169014 -2.0 0.10000036
806 138.466262817 28.169014 -1.3333334 0.10000036
295 138.466262817 2.1126761 1.3333334 0.20000003
296 138.466262817 2.1126761 0.6666667 0.20000003
303 138.466262817 -2.5376103e-09 2.0 0.2
302 138.466262817 0.70422536 0.6666667 0.20000002
1018 137.02444458 27.464788 1.3333334 0.20000035
1019 137.02444458 27.464788 0.6666667 0.20000035
1026 137.02444458 25.352112 2.0 0.20000033
1025 137.02444458 26.056337 0.6666667 0.20000033
514 137.02444458 14.788733 -0.6666667 1.876402e-07
515 137.02444458 14.084507 0.0 1.7870495e-07
522 137.02444458 24.647888 -0.6666667 0.100000314
521 137.02444458 24.647888 0.0 0.100000314
1303 136.992950439 46.478874 2.0 5.8972637e-07
1304 136.992950439 46.478874 1.3333334 5.8972637e-07
1311 136.992950439 45.774647 1.3333334 5.807911e-07
1310 136.992950439 45.774647 2.0 5.807911e-07
799 136.992950439 30.985916 -2.0 0.1000004
800 136.992950439 30.28169 -1.3333334 0.10000039
807 136.992950439 28.169014 -2.0 0.10000036
806 136.992950439 28.169014 -1.3333334 0.10000036
515 133.505447388 14.084507 0.0 1.7870495e-07
516 133.505447388 14.084507 -0.6666667 1.7870495e-07
523 133.505447388 23.943663 0.0 0.10000031
522 133.505447388 24.647888 -0.6666667 0.100000314
11 133.505447388 8.450705 -1.3333334 1.0722298e-07
12 133.505447388 8.450705 -2.0 1.0722298e-07
19 133.505447388 5.633803 -1.3333334 7.1481985e-08
18 133.505447388 6.338028 -2.0 8.041723e-08
800 133.474777222 30.28169 -1.3333334 0.10000039
801 133.474777222 30.28169 -2.0 0.10000039
808 133.474777222 27.464788 -0.6666667 0.10000035
807 133.474777222 28.169014 -2.0 0.10000036
296 133.474777222 2.1126761 0.6666667 0.20000003
297 133.474777222 1.4084507 2.0 0.20000002
304 133.474777222 -2.5376103e-09 1.3333334 0.2
303 133.474777222 -2.5376103e-09 2.0 0.2
520 144.858154297 12.676056 -0.6666667 1.6083446e-07
521 144.858154297 24.647888 0.0 0.100000314
528 144.858154297 22.535212 -0.6666667 0.100000285
527 144.858154297 22.535212 0.0 0.100000285
16 144.858154297 7.0422535 -2.0 8.9352476e-08
17 144.858154297 6.338028 -1.3333334 8.041723e-08
24 144.858154297 4.2253523 -2.0 5.361149e-08
23 144.858154297 4.2253523 -1.3333334 5.361149e-08
806 144.808517456 28.169014 -1.3333334 0.10000036
807 144.808517456 28.169014 -2.0 0.10000036
814 144.808517456 26.056337 -1.3333334 0.10000033
813 144.808517456 26.760563 -2.0 0.100000344
302 144.808517456 0.70422536 0.6666667 0.20000002
303 144.808517456 -2.5376103e-09 2.0 0.2
310 144.808517456 11.267606 1.3333334 1.4296397e-07
309 144.808517456 11.267606 2.0 1.4296397e-07
1024 141.246231079 26.056337 1.3333334 0.20000033
1025 141.246231079 26.056337 0.6666667 0.20000033
1032 141.246231079 35.915493 0.6666667 4.5569763e-07
1031 141.246231079 35.915493 1.3333334 4.5569763e-07
520 141.246231079 12.676056 -0.6666667 1.6083446e-07
521 141.246231079 24.647888 0.0 0.100000314
528 141.246231079 22.535212 -0.6666667 0.100000285
527 141.246231079 22.535212 0.0 0.100000285
1310 141.19960022 45.774647 2.0 5.807911e-07
1311 141.19960022 45.774647 1.3333334 5.807911e-07
1318 141.19960022 45.070423 1.3333334 5.718559e-07
1317 141.19960022 45.070423 2.0 5.718559e-07
806 141.19960022 28.169014 -1.3333334 0.10000036
807 141.19960022 28.169014 -2.0 0.10000036
814 141.19960022 26.056337 -1.3333334 0.10000033
813 141.19960022 26.760563 -2.0 0.100000344
527 138.343597412 22.535212 0.0 0.100000285
528 138.343597412 22.535212 -0.6666667 0.100000285
535 138.343597412 19.71831 0.0 0.100000255
534 138.343597412 20.422535 -0.6666667 0.10000026
23 138.343597412 4.2253523 -1.3333334 5.361149e-08
24 138.343597412 4.2253523 -2.0 5.361149e-08
31 138.343597412 1.4084507 -1.3333334 1.7870496e-08
30 138.343597412 2.1126761 -2.0 2.6805743e-08
807 138.310928345 28.169014 -2.0 0.10000036
808 138.310928345 27.464788 -0.6666667 0.10000035
815 138.310928345 26.056337 -2.0 0.10000033
814 138.310928345 26.056337 -1.3333334 0.10000033
303 138.310928345 -2.5376103e-09 2.0 0.2
304 138.310928345 -2.5376103e-09 1.3333334 0.2
311 138.310928345 11.267606 0.6666667 1.4296397e-07
310 138.310928345 11.267606 1.3333334 1.4296397e-07
509 137.498062134 16.90141 -0.6666667 2.1444595e-07
510 137.498062134 16.197184 0.0 2.055107e-07
517 137.498062134 13.380281 0.0 1.697697e-07
516 137.498062134 14.084507 -0.6666667 1.7870495e-07
5 137.498062134 10.56338 -1.3333334 1.3402871e-07
6 137.498062134 10.56338 -2.0 1.3402871e-07
13 137.498062134 7.746479 -1.3333334 9.828773e-08
12 137.498062134 8.450705 -2.0 1.0722298e-07
1317 137.435852051 45.070423 2.0 5.718559e-07
1318 137.435852051 45.070423 1.3333334 5.718559e-07
1325 137.435852051 44.366196 1.3333334 5.629206e-07
1324 137.435852051 44.366196 2.0 5.629206e-07
813 137.435852051 26.760563 -2.0 0.100000344
814 137.435852051 26.056337 -1.3333334 0.10000033
821 137.435852051 35.915493 -2.0 0.20000046
820 137.435852051 35.915493 -1.3333334 0.20000046
510 137.015426636 16.197184 0.0 2.055107e-07
511 137.015426636 16.197184 -0.6666667 2.055107e-07
518 137.015426636 13.380281 -0.6666667 1.697697e-07
517 137.015426636 13.380281 0.0 1.697697e-07
6 137.015426636 10.56338 -2.0 1.3402871e-07
7 137.015426636 9.859155 -1.3333334 1.2509346e-07
14 137.015426636 7.746479 -2.0 9.828773e-08
13 137.015426636 7.746479 -1.3333334 9.828773e-08
814 136.933837891 26.056337 -1.3333334 0.10000033
815 136.933837891 26.056337 -2.0 0.10000033
822 136.933837891 35.21127 -1.3333334 0.20000045
821 136.933837891 35.915493 -2.0 0.20000046
310 136.933837891 11.267606 1.3333334 1.4296397e-07
311 136.933837891 11.267606 0.6666667 1.4296397e-07
318 136.933837891 9.154929 2.0 1.1615821e-07
317 136.933837891 9.859155 0.6666667 1.2509346e-07
1013 127.698928833 28.87324 0.6666667 0.20000038
1014 127.698928833 28.169014 2.0 0.20000036
1021 127.698928833 26.760563 1.3333334 0.20000035
1020 127.698928833 26.760563 2.0 0.20000035
509 127.698928833 16.90141 -0.6666667 2.1444595e-07
510 127.698928833 16.197184 0.0 2.055107e-07
517 127.698928833 13.380281 0.0 1.697697e-07
516 127.698928833 14.084507 -0.6666667 1.7870495e-07
1318 127.578826904 45.070423 1.3333334 5.718559e-07
1319 127.578826904 45.070423 0.6666667 5.718559e-07
1326 127.578826904 44.366196 0.6666667 5.629206e-07
1325 127.578826904 44.366196 1.3333334 5.629206e-07
814 127.578826904 26.056337 -1.3333334 0.10000033
815 127.578826904 26.056337 -2.0 0.10000033
822 127.578826904 35.21127 -1.3333334 0.20000045
821 127.578826904 35.915493 -2.0 0.20000046
506 134.927581787 17.605635 0.0 2.233812e-07
507 134.927581787 17.605635 -0.6666667 2.233812e-07
514 134.927581787 14.788733 -0.6666667 1.876402e-07
513 134.927581787 15.492958 -0.6666667 1.9657546e-07
2 134.927581787 11.971831 -2.0 1.5189921e-07
3 134.927581787 11.267606 -1.3333334 1.4296397e-07
10 134.927581787 9.154929 -2.0 1.1615821e-07
9 134.927581787 9.154929 -1.3333334 1.1615821e-07
748 134.950088501 35.915493 -1.3333334 4.5569763e-07
749 134.950088501 35.915493 -2.0 4.5569763e-07
756 134.950088501 33.09859 -1.3333334 4.1995665e-07
755 134.950088501 33.80282 -2.0 4.2889192e-07
244 134.950088501 0.0 1.3333334 0.0
245 134.950088501 0.0 0.6666667 0.0
252 134.950088501 4.9295774 2.0 0.10000006
251 134.950088501 5.633803 0.6666667 0.100000076
1010 141.926345825 29.577465 0.6666667 0.20000038
1011 141.926345825 28.87324 2.0 0.20000038
1018 141.926345825 27.464788 1.3333334 0.20000035
1017 141.926345825 27.464788 2.0 0.20000035
506 141.926345825 17.605635 0.0 2.233812e-07
507 141.926345825 17.605635 -0.6666667 2.233812e-07
514 141.926345825 14.788733 -0.6666667 1.876402e-07
513 141.926345825 15.492958 -0.6666667 1.9657546e-07
1252 141.919326782 42.25352 2.0 0.10000054
1253 141.919326782 42.25352 1.3333334 0.10000054
1260 141.919326782 40.84507 0.6666667 0.100000516
1259 141.919326782 40.84507 1.3333334 0.100000516
748 141.919326782 35.915493 -1.3333334 4.5569763e-07
749 141.919326782 35.915493 -2.0 4.5569763e-07
756 141.919326782 33.09859 -1.3333334 4.1995665e-07
755 141.919326782 33.80282 -2.0 4.2889192e-07
507 138.557189941 17.605635 -0.6666667 2.233812e-07
508 138.557189941 16.90141 0.0 2.1444595e-07
515 138.557189941 14.084507 0.0 1.7870495e-07
514 138.557189941 14.788733 -0.6666667 1.876402e-07
3 138.557189941 11.267606 -1.3333334 1.4296397e-07
4 138.557189941 11.267606 -2.0 1.4296397e-07
11 138.557189941 8.450705 -1.3333334 1.0722298e-07
10 138.557189941 9.154929 -2.0 1.1615821e-07
755 138.512237549 33.80282 -2.0 4.2889192e-07
756 138.512237549 33.09859 -1.3333334 4.1995665e-07
763 138.512237549 30.985916 -2.0 3.931509e-07
762 138.512237549 30.985916 -1.3333334 3.931509e-07
251 138.512237549 5.633803 0.6666667 0.100000076
252 138.512237549 4.9295774 2.0 0.10000006
259 138.512237549 3.5211267 1.3333334 0.100000046
258 138.512237549 3.5211267 2.0 0.100000046
1016 113.719841003 28.169014 0.6666667 0.20000036
1017 113.719841003 27.464788 2.0 0.20000035
1024 113.719841003 26.056337 1.3333334 0.20000033
1023 113.719841003 26.056337 2.0 0.20000033
512 113.719841003 15.492958 0.0 1.9657546e-07
513 113.719841003 15.492958 -0.6666667 1.9657546e-07
520 113.719841003 12.676056 -0.6666667 1.6083446e-07
519 113.719841003 12.676056 0.0 1.6083446e-07
1231 113.85471344 40.140846 2.0 5.0930913e-07
1232 113.85471344 40.140846 1.3333334 5.0930913e-07
1239 113.85471344 38.732395 0.6666667 4.9143864e-07
1238 113.85471344 38.732395 1.3333334 4.9143864e-07
727 113.85471344 23.239437 2.0 0.2000003
728 113.85471344 23.239437 1.3333334 0.2000003
735 113.85471344 21.830986 0.6666667 0.20000029
734 113.85471344 21.830986 1.3333334 0.20000029
519 117.138969421 12.676056 0.0 1.6083446e-07
520 117.138969421 12.676056 -0.6666667 1.6083446e-07
527 117.138969421 22.535212 0.0 0.100000285
526 117.138969421 23.239437 -0.6666667 0.1000003
15 117.138969421 7.0422535 -1.3333334 8.9352476e-08
16 117.138969421 7.0422535 -2.0 8.9352476e-08
23 117.138969421 4.2253523 -1.3333334 5.361149e-08
22 117.138969421 4.9295774 -2.0 6.254673e-08
734 117.296714783 21.830986 1.3333334 0.20000029
735 117.296714783 21.830986 0.6666667 0.20000029
742 117.296714783 19.71831 2.0 0.20000026
741 117.296714783 20.422535 0.6666667 0.20000026
230 117.296714783 3.5211267 0.6666667 4.4676238e-08
231 117.296714783 2.8169014 2.0 3.5740992e-08
238 117.296714783 1.4084507 1.3333334 1.7870496e-08
237 117.296714783 1.4084507 2.0 1.7870496e-08
1023 138.563049316 26.056337 2.0 0.20000033
1024 138.563049316 26.056337 1.3333334 0.20000033
1031 138.563049316 35.915493 1.3333334 4.5569763e-07
1030 138.563049316 35.915493 2.0 4.5569763e-07
519 138.563049316 12.676056 0.0 1.6083446e-07
520 138.563049316 12.676056 -0.6666667 1.6083446e-07
527 138.563049316 22.535212 0.0 0.100000285
526 138.563049316 23.239437 -0.6666667 0.1000003
1238 138.767089844 38.732395 1.3333334 4.9143864e-07
1239 138.767089844 38.732395 0.6666667 4.9143864e-07
1246 138.767089844 36.619717 2.0 4.6463285e-07
1245 138.767089844 37.323944 0.6666667 4.7356812e-07
734 138.767089844 21.830986 1.3333334 0.20000029
735 138.767089844 21.830986 0.6666667 0.20000029
742 138.767089844 19.71831 2.0 0.20000026
741 138.767089844 20.422535 0.6666667 0.20000026
559 138.488922119 23.943663 -0.6666667 0.2000003
560 138.488922119 23.239437 0.0 0.2000003
567 138.488922119 21.12676 -0.6666667 0.20000027
566 138.488922119 21.12676 0.0 0.20000027
55 138.488922119 5.633803 -1.3333334 0.100000076
56 138.488922119 5.633803 -2.0 0.100000076
63 138.488922119 2.8169014 -1.3333334 0.10000004
62 138.488922119 3.5211267 -2.0 0.100000046
1067 138.139938354 33.80282 1.3333334 0.100000426
1068 138.139938354 33.80282 0.6666667 0.100000426
1075 138.139938354 31.690142 2.0 0.100000404
1074 138.139938354 32.394367 0.6666667 0.10000041
563 138.139938354 22.535212 -0.6666667 0.20000029
564 138.139938354 21.830986 0.0 0.20000029
571 138.139938354 19.71831 -0.6666667 0.20000026
570 138.139938354 19.71831 0.0 0.20000026
551 138.596405029 14.084507 0.0 0.10000018
552 138.596405029 14.084507 -0.6666667 0.10000018
559 138.596405029 23.943663 -0.6666667 0.2000003
558 138.596405029 23.943663 0.0 0.2000003
47 138.596405029 8.450705 -1.3333334 0.100000106
48 138.596405029 8.450705 -2.0 0.100000106
55 138.596405029 5.633803 -1.3333334 0.100000076
54 138.596405029 6.338028 -2.0 0.10000008
552 138.596405029 14.084507 -0.6666667 0.10000018
553 138.596405029 13.380281 0.0 0.10000017
560 138.596405029 23.239437 0.0 0.2000003
559 138.596405029 23.943663 -0.6666667 0.2000003
48 138.596405029 8.450705 -2.0 0.100000106
49 138.596405029 7.746479 -1.3333334 0.1000001
56 138.596405029 5.633803 -2.0 0.100000076
55 138.596405029 5.633803 -1.3333334 0.100000076
855 138.138641357 36.619717 -0.6666667 4.6463285e-07
856 138.138641357 35.915493 0.0 4.5569763e-07
863 138.138641357 33.80282 -0.6666667 4.2889192e-07
862 138.138641357 33.80282 0.0 4.2889192e-07
351 138.138641357 7.746479 2.0 0.1000001
352 138.138641357 7.746479 1.3333334 0.1000001
359 138.138641357 11.971831 2.0 0.20000015
358 138.138641357 12.676056 0.0 0.20000017
1352 138.596862793 45.774647 0.0 0.10000058
1353 138.596862793 45.774647 -0.6666667 0.10000058
1360 138.596862793 45.070423 -0.6666667 0.100000575
1359 138.596862793 45.070423 0.0 0.100000575
848 138.596862793 26.760563 -1.3333334 0.20000035
849 138.596862793 26.760563 -2.0 0.20000035
856 138.596862793 35.915493 0.0 4.5569763e-07
855 138.596862793 36.619717 -0.6666667 4.6463285e-07
570 138.129470825 19.71831 0.0 0.20000026
571 138.129470825 19.71831 -0.6666667 0.20000026
578 138.129470825 16.90141 0.0 0.20000021
577 138.129470825 17.605635 -0.6666667 0.20000023
66 138.129470825 2.1126761 -2.0 0.10000003
67 138.129470825 1.4084507 -1.3333334 0.10000002
74 138.129470825 11.971831 -2.0 0.20000015
73 138.129470825 11.971831 -1.3333334 0.20000015
1359 138.127960205 45.070423 0.0 0.100000575
1360 138.127960205 45.070423 -0.6666667 0.100000575
1367 138.127960205 44.366196 -0.6666667 0.10000056
1366 138.127960205 44.366196 0.0 0.10000056
855 138.127960205 36.619717 -0.6666667 4.6463285e-07
856 138.127960205 35.915493 0.0 4.5569763e-07
863 138.127960205 33.80282 -0.6666667 4.2889192e-07
862 138.127960205 33.80282 0.0 4.2889192e-07
1055 138.608261108 36.619717 1.3333334 0.10000046
1056 138.608261108 36.619717 0.6666667 0.10000046
1063 138.608261108 34.507042 2.0 0.10000044
1062 138.608261108 35.21127 0.6666667 0.10000045
551 138.608261108 14.084507 0.0 0.10000018
552 138.608261108 14.084507 -0.6666667 0.10000018
559 138.608261108 23.943663 -0.6666667 0.2000003
558 138.608261108 23.943663 0.0 0.2000003
849 138.609451294 26.760563 -2.0 0.20000035
850 138.609451294 26.056337 -1.3333334 0.20000033
857 138.609451294 35.915493 -0.6666667 4.5569763e-07
856 138.609451294 35.915493 0.0 4.5569763e-07
345 138.609451294 9.154929 2.0 0.10000012
346 138.609451294 9.154929 1.3333334 0.10000012
353 138.609451294 7.746479 0.6666667 0.1000001
352 138.609451294 7.746479 1.3333334 0.1000001
1073 138.010681152 32.394367 1.3333334 0.10000041
1074 138.010681152 32.394367 0.6666667 0.10000041
1081 138.010681152 36.619717 2.0 0.20000046
1080 138.010681152 30.985916 0.6666667 0.1000004
569 138.010681152 20.422535 -0.6666667 0.20000026
570 138.010681152 19.71831 0.0 0.20000026
577 138.010681152 17.605635 -0.6666667 0.20000023
576 138.010681152 17.605635 0.0 0.20000023
841 138.00894165 28.87324 -2.0 0.20000038
842 138.00894165 28.169014 -1.3333334 0.20000036
849 138.00894165 26.760563 -2.0 0.20000035
848 138.00894165 26.760563 -1.3333334 0.20000035
337 138.00894165 11.267606 1.3333334 0.10000014
338 138.00894165 11.267606 0.6666667 0.10000014
345 138.00894165 9.154929 2.0 0.10000012
344 138.00894165 9.859155 0.6666667 0.10000013
1345 138.00894165 46.478874 0.0 0.10000059
1346 138.00894165 46.478874 -0.6666667 0.10000059
1353 138.00894165 45.774647 -0.6666667 0.10000058
1352 138.00894165 45.774647 0.0 0.10000058
841 138.00894165 28.87324 -2.0 0.20000038
842 138.00894165 28.169014 -1.3333334 0.20000036
849 138.00894165 26.760563 -2.0 0.20000035
848 138.00894165 26.760563 -1.3333334 0.20000035
549 137.997848511 14.788733 0.0 0.10000019
550 137.997848511 14.788733 -0.6666667 0.10000019
557 137.997848511 24.647888 -0.6666667 0.20000032
556 137.997848511 24.647888 0.0 0.20000032
45 137.997848511 9.154929 -1.3333334 0.10000012
46 137.997848511 9.154929 -2.0 0.10000012
53 137.997848511 6.338028 -1.3333334 0.10000008
52 137.997848511 7.0422535 -2.0 0.10000009
842 137.995895386 28.169014 -1.3333334 0.20000036
843 137.995895386 28.169014 -2.0 0.20000036
850 137.995895386 26.056337 -1.3333334 0.20000033
849 137.995895386 26.760563 -2.0 0.20000035
338 137.995895386 11.267606 0.6666667 0.10000014
339 137.995895386 10.56338 2.0 0.100000136
346 137.995895386 9.154929 1.3333334 0.10000012
345 137.995895386 9.154929 2.0 0.10000012
1074 138.080169678 32.394367 0.6666667 0.10000041
1075 138.080169678 31.690142 2.0 0.100000404
1082 138.080169678 36.619717 1.3333334 0.20000046
1081 138.080169678 36.619717 2.0 0.20000046
570 138.080169678 19.71831 0.0 0.20000026
571 138.080169678 19.71831 -0.6666667 0.20000026
578 138.080169678 16.90141 0.0 0.20000021
577 138.080169678 17.605635 -0.6666667 0.20000023
856 138.078796387 35.915493 0.0 4.5569763e-07
857 138.078796387 35.915493 -0.6666667 4.5569763e-07
864 138.078796387 33.09859 0.0 4.1995665e-07
863 138.078796387 33.80282 -0.6666667 4.2889192e-07
352 138.078796387 7.746479 1.3333334 0.1000001
353 138.078796387 7.746479 0.6666667 0.1000001
360 138.078796387 11.971831 1.3333334 0.20000015
359 138.078796387 11.971831 2.0 0.20000015
1056 138.671981812 36.619717 0.6666667 0.10000046
1057 138.671981812 35.915493 2.0 0.100000456
1064 138.671981812 34.507042 1.3333334 0.10000044
1063 138.671981812 34.507042 2.0 0.10000044
552 138.671981812 14.084507 -0.6666667 0.10000018
553 138.671981812 13.380281 0.0 0.10000017
560 138.671981812 23.239437 0.0 0.2000003
559 138.671981812 23.943663 -0.6666667 0.2000003
1353 138.673797607 45.774647 -0.6666667 0.10000058
1354 138.673797607 45.774647 -1.3333334 0.10000058
1361 138.673797607 45.070423 -1.3333334 0.100000575
1360 138.673797607 45.070423 -0.6666667 0.100000575
849 138.673797607 26.760563 -2.0 0.20000035
850 138.673797607 26.056337 -1.3333334 0.20000033
857 138.673797607 35.915493 -0.6666667 4.5569763e-07
856 138.673797607 35.915493 0.0 4.5569763e-07
1053 137.916030884 30.985916 0.6666667 3.931509e-07
1054 137.916030884 36.619717 2.0 0.10000046
1061 137.916030884 35.21127 1.3333334 0.10000045
1060 137.916030884 35.21127 2.0 0.10000045
549 137.916030884 14.788733 0.0 0.10000019
550 137.916030884 14.788733 -0.6666667 0.10000019
557 137.916030884 24.647888 -0.6666667 0.20000032
556 137.916030884 24.647888 0.0 0.20000032
1346 137.914413452 46.478874 -0.6666667 0.10000059
1347 137.914413452 46.478874 -1.3333334 0.10000059
1354 137.914413452 45.774647 -1.3333334 0.10000058
1353 137.914413452 45.774647 -0.6666667 0.10000058
842 137.914413452 28.169014 -1.3333334 0.20000036
843 137.914413452 28.169014 -2.0 0.20000036
850 137.914413452 26.056337 -1.3333334 0.20000033
849 137.914413452 26.760563 -2.0 0.20000035
548 138.751724243 15.492958 -0.6666667 0.100000195
549 138.751724243 14.788733 0.0 0.10000019
556 138.751724243 24.647888 0.0 0.20000032
555 138.751724243 12.676056 -0.6666667 0.100000165
44 138.751724243 9.859155 -2.0 0.10000013
45 138.751724243 9.154929 -1.3333334 0.10000012
52 138.751724243 7.0422535 -2.0 0.10000009
51 138.751724243 7.0422535 -1.3333334 0.10000009
1052 138.751724243 30.985916 1.3333334 3.931509e-07
1053 138.751724243 30.985916 0.6666667 3.931509e-07
1060 138.751724243 35.21127 2.0 0.10000045
1059 138.751724243 35.915493 0.6666667 0.100000456
548 138.751724243 15.492958 -0.6666667 0.100000195
549 138.751724243 14.788733 0.0 0.10000019
556 138.751724243 24.647888 0.0 0.20000032
555 138.751724243 12.676056 -0.6666667 0.100000165
1338 138.751968384 47.183098 2.0 0.1000006
1339 138.751968384 47.183098 1.3333334 0.1000006
1346 138.751968384 46.478874 -0.6666667 0.10000059
1345 138.751968384 46.478874 0.0 0.10000059
834 138.751968384 30.985916 -1.3333334 0.20000039
835 138.751968384 30.985916 -2.0 0.20000039
842 138.751968384 28.169014 -1.3333334 0.20000036
841 138.751968384 28.87324 -2.0 0.20000038
555 138.766891479 12.676056 -0.6666667 0.100000165
556 138.766891479 24.647888 0.0 0.20000032
563 138.766891479 22.535212 -0.6666667 0.20000029
562 138.766891479 22.535212 0.0 0.20000029
51 138.766891479 7.0422535 -1.3333334 0.10000009
52 138.766891479 7.0422535 -2.0 0.10000009
59 138.766891479 4.2253523 -1.3333334 0.10000005
58 138.766891479 4.9295774 -2.0 0.10000006
835 138.768188477 30.985916 -2.0 0.20000039
836 138.768188477 30.28169 -1.3333334 0.20000039
843 138.768188477 28.169014 -2.0 0.20000036
842 138.768188477 28.169014 -1.3333334 0.20000036
331 138.768188477 12.676056 0.6666667 0.100000165
332 138.768188477 12.676056 0.0 0.100000165
339 138.768188477 10.56338 2.0 0.100000136
338 138.768188477 11.267606 0.6666667 0.10000014
1059 138.874053955 35.915493 0.6666667 0.100000456
1060 138.874053955 35.21127 2.0 0.10000045
1067 138.874053955 33.80282 1.3333334 0.100000426
1066 138.874053955 33.80282 2.0 0.100000426
555 138.874053955 12.676056 -0.6666667 0.100000165
556 138.874053955 24.647888 0.0 0.20000032
563 138.874053955 22.535212 -0.6666667 0.20000029
562 138.874053955 22.535212 0.0 0.20000029
1339 138.876266479 47.183098 1.3333334 0.1000006
1340 138.876266479 47.183098 0.6666667 0.1000006
1347 138.876266479 46.478874 -1.3333334 0.10000059
1346 138.876266479 46.478874 -0.6666667 0.10000059
835 138.876266479 30.985916 -2.0 0.20000039
836 138.876266479 30.28169 -1.3333334 0.20000039
843 138.876266479 28.169014 -2.0 0.20000036
842 138.876266479 28.169014 -1.3333334 0.20000036
1047 137.819824219 32.394367 0.6666667 4.110214e-07
1048 137.819824219 31.690142 2.0 4.0208616e-07
1055 137.819824219 36.619717 1.3333334 0.10000046
1054 137.819824219 36.619717 2.0 0.10000046
543 137.819824219 16.90141 0.0 0.10000022
544 137.819824219 16.90141 -0.6666667 0.10000022
551 137.819824219 14.084507 0.0 0.10000018
550 137.819824219 14.788733 -0.6666667 0.10000019
1331 137.817367554 43.661972 2.0 5.539854e-07
1332 137.817367554 43.661972 1.3333334 5.539854e-07
1339 137.817367554 47.183098 1.3333334 0.1000006
1338 137.817367554 47.183098 2.0 0.1000006
827 137.817367554 33.80282 -2.0 0.20000044
828 137.817367554 33.09859 -1.3333334 0.20000042
835 137.817367554 30.985916 -2.0 0.20000039
834 137.817367554 30.985916 -1.3333334 0.20000039
544 137.811599731 16.90141 -0.6666667 0.10000022
545 137.811599731 16.197184 0.0 0.10000021
552 137.811599731 14.084507 -0.6666667 0.10000018
551 137.811599731 14.084507 0.0 0.10000018
40 137.811599731 11.267606 -2.0 0.10000014
41 137.811599731 10.56338 -1.3333334 0.100000136
48 137.811599731 8.450705 -2.0 0.100000106
47 137.811599731 8.450705 -1.3333334 0.100000106
828 137.808959961 33.09859 -1.3333334 0.20000042
829 137.808959961 33.09859 -2.0 0.20000042
836 137.808959961 30.28169 -1.3333334 0.20000039
835 137.808959961 30.985916 -2.0 0.20000039
324 137.808959961 7.746479 2.0 9.828773e-08
325 137.808959961 7.746479 1.3333334 9.828773e-08
332 137.808959961 12.676056 0.0 0.100000165
331 137.808959961 12.676056 0.6666667 0.100000165
545 137.682174683 16.197184 0.0 0.10000021
546 137.682174683 16.197184 -0.6666667 0.10000021
553 137.682174683 13.380281 0.0 0.10000017
552 137.682174683 14.084507 -0.6666667 0.10000018
41 137.682174683 10.56338 -1.3333334 0.100000136
42 137.682174683 10.56338 -2.0 0.100000136
49 137.682174683 7.746479 -1.3333334 0.1000001
48 137.682174683 8.450705 -2.0 0.100000106
1332 137.680160522 43.661972 1.3333334 5.539854e-07
1333 137.680160522 43.661972 0.6666667 5.539854e-07
1340 137.680160522 47.183098 0.6666667 0.1000006
1339 137.680160522 47.183098 1.3333334 0.1000006
828 137.680160522 33.09859 -1.3333334 0.20000042
829 137.680160522 33.09859 -2.0 0.20000042
836 137.680160522 30.28169 -1.3333334 0.20000039
835 137.680160522 30.985916 -2.0 0.20000039
1072 138.966033936 32.394367 2.0 0.10000041
1073 138.966033936 32.394367 1.3333334 0.10000041
1080 138.966033936 30.985916 0.6666667 0.1000004
1079 138.966033936 30.985916 1.3333334 0.1000004
568 138.966033936 20.422535 0.0 0.20000026
569 138.966033936 20.422535 -0.6666667 0.20000026
576 138.966033936 17.605635 0.0 0.20000023
575 138.966033936 18.309858 -0.6666667 0.20000024
1324 138.965774536 44.366196 2.0 5.629206e-07
1325 138.965774536 44.366196 1.3333334 5.629206e-07
1332 138.965774536 43.661972 1.3333334 5.539854e-07
1331 138.965774536 43.661972 2.0 5.539854e-07
820 138.965774536 35.915493 -1.3333334 0.20000046
821 138.965774536 35.915493 -2.0 0.20000046
828 138.965774536 33.09859 -1.3333334 0.20000042
827 138.965774536 33.80282 -2.0 0.20000044
541 138.985748291 17.605635 0.0 0.100000225
542 138.985748291 17.605635 -0.6666667 0.100000225
549 138.985748291 14.788733 0.0 0.10000019
548 138.985748291 15.492958 -0.6666667 0.100000195
37 138.985748291 11.971831 -1.3333334 0.10000015
38 138.985748291 11.971831 -2.0 0.10000015
45 138.985748291 9.154929 -1.3333334 0.10000012
44 138.985748291 9.859155 -2.0 0.10000013
821 138.986923218 35.915493 -2.0 0.20000046
822 138.986923218 35.21127 -1.3333334 0.20000045
829 138.986923218 33.09859 -2.0 0.20000042
828 138.986923218 33.09859 -1.3333334 0.20000042
317 138.986923218 9.859155 0.6666667 1.2509346e-07
318 138.986923218 9.154929 2.0 1.1615821e-07
325 138.986923218 7.746479 1.3333334 9.828773e-08
324 138.986923218 7.746479 2.0 9.828773e-08
1045 139.171127319 32.394367 2.0 4.110214e-07
1046 139.171127319 32.394367 1.3333334 4.110214e-07
1053 139.171127319 30.985916 0.6666667 3.931509e-07
1052 139.171127319 30.985916 1.3333334 3.931509e-07
541 139.171127319 17.605635 0.0 0.100000225
542 139.171127319 17.605635 -0.6666667 0.100000225
549 139.171127319 14.788733 0.0 0.10000019
548 139.171127319 15.492958 -0.6666667 0.100000195
1325 139.173629761 44.366196 1.3333334 5.629206e-07
1326 139.173629761 44.366196 0.6666667 5.629206e-07
1333 139.173629761 43.661972 0.6666667 5.539854e-07
1332 139.173629761 43.661972 1.3333334 5.539854e-07
821 139.173629761 35.915493 -2.0 0.20000046
822 139.173629761 35.21127 -1.3333334 0.20000045
829 139.173629761 33.09859 -2.0 0.20000042
828 139.173629761 33.09859 -1.3333334 0.20000042
1051 137.543060303 30.985916 2.0 3.931509e-07
1052 137.543060303 30.985916 1.3333334 3.931509e-07
1059 137.543060303 35.915493 0.6666667 0.100000456
1058 137.543060303 35.915493 1.3333334 0.100000456
547 137.543060303 15.492958 0.0 0.100000195
548 137.543060303 15.492958 -0.6666667 0.100000195
555 137.543060303 12.676056 -0.6666667 0.100000165
554 137.543060303 13.380281 -0.6666667 0.10000017
1262 137.539276123 40.140846 1.3333334 0.10000051
1263 137.539276123 40.140846 0.6666667 0.10000051
1270 137.539276123 38.028168 2.0 0.100000486
1269 137.539276123 38.732395 0.6666667 0.10000049
758 137.539276123 32.394367 -1.3333334 4.110214e-07
759 137.539276123 32.394367 -2.0 4.110214e-07
766 137.539276123 29.577465 -1.3333334 3.7528042e-07
765 137.539276123 30.28169 -2.0 3.8421567e-07
554 137.556304932 13.380281 -0.6666667 0.10000017
555 137.556304932 12.676056 -0.6666667 0.100000165
562 137.556304932 22.535212 0.0 0.20000029
561 137.556304932 23.239437 -0.6666667 0.2000003
50 137.556304932 7.746479 -2.0 0.1000001
51 137.556304932 7.0422535 -1.3333334 0.10000009
58 137.556304932 4.9295774 -2.0 0.10000006
57 137.556304932 4.9295774 -1.3333334 0.10000006
766 137.552444458 29.577465 -1.3333334 3.7528042e-07
767 137.552444458 29.577465 -2.0 3.7528042e-07
774 137.552444458 26.760563 -1.3333334 3.395394e-07
773 137.552444458 27.464788 -2.0 3.4847466e-07
262 137.552444458 2.8169014 1.3333334 0.10000004
263 137.552444458 2.8169014 0.6666667 0.10000004
270 137.552444458 0.70422536 2.0 0.10000001
269 137.552444458 1.4084507 0.6666667 0.10000002
1058 137.365203857 35.915493 1.3333334 0.100000456
1059 137.365203857 35.915493 0.6666667 0.100000456
1066 137.365203857 33.80282 2.0 0.100000426
1065 137.365203857 34.507042 0.6666667 0.10000044
554 137.365203857 13.380281 -0.6666667 0.10000017
555 137.365203857 12.676056 -0.6666667 0.100000165
562 137.365203857 22.535212 0.0 0.20000029
561 137.365203857 23.239437 -0.6666667 0.2000003
767 137.362426758 29.577465 -2.0 3.7528042e-07
768 137.362426758 28.87324 -1.3333334 3.6634515e-07
775 137.362426758 26.760563 -2.0 3.395394e-07
774 137.362426758 26.760563 -1.3333334 3.395394e-07
263 137.362426758 2.8169014 0.6666667 0.10000004
264 137.362426758 2.1126761 2.0 0.10000003
271 137.362426758 0.70422536 1.3333334 0.10000001
270 137.362426758 0.70422536 2.0 0.10000001
1042 139.269714355 33.09859 2.0 4.1995665e-07
1043 139.269714355 33.09859 1.3333334 4.1995665e-07
1050 139.269714355 31.690142 0.6666667 4.0208616e-07
1049 139.269714355 31.690142 1.3333334 4.0208616e-07
538 139.269714355 19.014084 -0.6666667 0.10000024
539 139.269714355 18.309858 0.0 0.10000023
546 139.269714355 16.197184 -0.6666667 0.10000021
545 139.269714355 16.197184 0.0 0.10000021
772 139.268112183 27.464788 -1.3333334 3.4847466e-07
773 139.268112183 27.464788 -2.0 3.4847466e-07
780 139.268112183 24.647888 -1.3333334 3.1273368e-07
779 139.268112183 25.352112 -2.0 3.2166892e-07
268 139.268112183 1.4084507 1.3333334 0.10000002
269 139.268112183 1.4084507 0.6666667 0.10000002
276 139.268112183 6.338028 2.0 0.20000008
275 139.268112183 -1.2688052e-09 0.6666667 0.1
1037 139.281341553 34.507042 1.3333334 4.3782714e-07
1038 139.281341553 34.507042 0.6666667 4.3782714e-07
1045 139.281341553 32.394367 2.0 4.110214e-07
1044 139.281341553 33.09859 0.6666667 4.1995665e-07
533 139.281341553 20.422535 0.0 0.10000026
534 139.281341553 20.422535 -0.6666667 0.10000026
541 139.281341553 17.605635 0.0 0.100000225
540 139.281341553 18.309858 -0.6666667 0.10000023
1276 139.281707764 42.957745 2.0 0.20000055
1277 139.281707764 42.957745 1.3333334 0.20000055
1284 139.281707764 41.549297 0.6666667 0.20000052
1283 139.281707764 41.549297 1.3333334 0.20000052
772 139.281707764 27.464788 -1.3333334 3.4847466e-07
773 139.281707764 27.464788 -2.0 3.4847466e-07
780 139.281707764 24.647888 -1.3333334 3.1273368e-07
779 139.281707764 25.352112 -2.0 3.2166892e-07
1039 139.604736328 33.80282 2.0 4.2889192e-07
1040 139.604736328 33.80282 1.3333334 4.2889192e-07
1047 139.604736328 32.394367 0.6666667 4.110214e-07
1046 139.604736328 32.394367 1.3333334 4.110214e-07
535 139.604736328 19.71831 0.0 0.100000255
536 139.604736328 19.71831 -0.6666667 0.100000255
543 139.604736328 16.90141 0.0 0.10000022
542 139.604736328 17.605635 -0.6666667 0.100000225
773 139.607070923 27.464788 -2.0 3.4847466e-07
774 139.607070923 26.760563 -1.3333334 3.395394e-07
781 139.607070923 24.647888 -2.0 3.1273368e-07
780 139.607070923 24.647888 -1.3333334 3.1273368e-07
269 139.607070923 1.4084507 0.6666667 0.10000002
270 139.607070923 0.70422536 2.0 0.10000001
277 139.607070923 6.338028 1.3333334 0.20000008
276 139.607070923 6.338028 2.0 0.20000008
780 137.207809448 24.647888 -1.3333334 3.1273368e-07
781 137.207809448 24.647888 -2.0 3.1273368e-07
788 137.207809448 34.507042 -1.3333334 0.10000044
787 137.207809448 35.21127 -2.0 0.10000045
276 137.207809448 6.338028 2.0 0.20000008
277 137.207809448 6.338028 1.3333334 0.20000008
284 137.207809448 4.9295774 0.6666667 0.20000006
283 137.207809448 4.9295774 1.3333334 0.20000006
1284 137.2290802 41.549297 0.6666667 0.20000052
1285 137.2290802 40.84507 2.0 0.20000052
1292 137.2290802 39.43662 1.3333334 0.20000051
1291 137.2290802 39.43662 2.0 0.20000051
780 137.2290802 24.647888 -1.3333334 3.1273368e-07
781 137.2290802 24.647888 -2.0 3.1273368e-07
788 137.2290802 34.507042 -1.3333334 0.10000044
787 137.2290802 35.21127 -2.0 0.10000045
557 138.535125732 24.647888 -0.6666667 0.20000032
558 138.535125732 23.943663 0.0 0.2000003
565 138.535125732 21.830986 -0.6666667 0.20000029
564 138.535125732 21.830986 0.0 0.20000029
53 138.535125732 6.338028 -1.3333334 0.10000008
54 138.535125732 6.338028 -2.0 0.10000008
61 138.535125732 3.5211267 -1.3333334 0.100000046
60 138.535125732 4.2253523 -2.0 0.10000005
1360 138.536621094 45.070423 -0.6666667 0.100000575
1361 138.536621094 45.070423 -1.3333334 0.100000575
1368 138.536621094 44.366196 -1.3333334 0.10000056
1367 138.536621094 44.366196 -0.6666667 0.10000056
856 138.536621094 35.915493 0.0 4.5569763e-07
857 138.536621094 35.915493 -0.6666667 4.5569763e-07
864 138.536621094 33.09859 0.0 4.1995665e-07
863 138.536621094 33.80282 -0.6666667 4.2889192e-07
564 138.19102478 21.830986 0.0 0.20000029
565 138.19102478 21.830986 -0.6666667 0.20000029
572 138.19102478 19.014084 0.0 0.20000024
571 138.19102478 19.71831 -0.6666667 0.20000026
60 138.19102478 4.2253523 -2.0 0.10000005
61 138.19102478 3.5211267 -1.3333334 0.100000046
68 138.19102478 1.4084507 -2.0 0.10000002
67 138.19102478 1.4084507 -1.3333334 0.10000002
1366 138.189849854 44.366196 0.0 0.10000056
1367 138.189849854 44.366196 -0.6666667 0.10000056
1374 138.189849854 43.661972 -0.6666667 0.10000055
1373 138.189849854 43.661972 0.0 0.10000055
862 138.189849854 33.80282 0.0 4.2889192e-07
863 138.189849854 33.80282 -0.6666667 4.2889192e-07
870 138.189849854 30.985916 0.0 3.931509e-07
869 138.189849854 31.690142 -0.6666667 4.0208616e-07
1069 138.444412231 33.09859 2.0 0.10000042
1070 138.444412231 33.09859 1.3333334 0.10000042
1077 138.444412231 31.690142 0.6666667 0.100000404
1076 138.444412231 31.690142 1.3333334 0.100000404
565 138.444412231 21.830986 -0.6666667 0.20000029
566 138.444412231 21.12676 0.0 0.20000027
573 138.444412231 19.014084 -0.6666667 0.20000024
572 138.444412231 19.014084 0.0 0.20000024
870 138.445648193 30.985916 0.0 3.931509e-07
871 138.445648193 30.985916 -0.6666667 3.931509e-07
878 138.445648193 28.169014 0.0 3.574099e-07
877 138.445648193 28.87324 -0.6666667 3.6634515e-07
366 138.445648193 10.56338 1.3333334 0.20000014
367 138.445648193 10.56338 0.6666667 0.20000014
374 138.445648193 8.450705 2.0 0.2000001
373 138.445648193 9.154929 0.6666667 0.20000012
1077 138.263504028 31.690142 0.6666667 0.100000404
1078 138.263504028 30.985916 2.0 0.1000004
1085 138.263504028 35.915493 1.3333334 0.20000046
1084 138.263504028 35.915493 2.0 0.20000046
573 138.263504028 19.014084 -0.6666667 0.20000024
574 138.263504028 18.309858 0.0 0.20000024
581 138.263504028 16.197184 -0.6666667 0.20000021
580 138.263504028 16.197184 0.0 0.20000021
1375 138.262512207 43.661972 -1.3333334 0.10000055
1376 138.262512207 43.661972 -2.0 0.10000055
1383 138.262512207 46.478874 0.6666667 0.2000006
1382 138.262512207 46.478874 1.3333334 0.2000006
871 138.262512207 30.985916 -0.6666667 3.931509e-07
872 138.262512207 30.28169 0.0 3.8421567e-07
879 138.262512207 28.169014 -0.6666667 3.574099e-07
878 138.262512207 28.169014 0.0 3.574099e-07
1081 138.386138916 36.619717 2.0 0.20000046
1082 138.386138916 36.619717 1.3333334 0.20000046
1089 138.386138916 35.21127 0.6666667 0.20000045
1088 138.386138916 35.21127 1.3333334 0.20000045
577 138.386138916 17.605635 -0.6666667 0.20000023
578 138.386138916 16.90141 0.0 0.20000021
585 138.386138916 14.788733 -0.6666667 0.2000002
584 138.386138916 14.788733 0.0 0.2000002
1384 138.387145996 46.478874 0.0 0.2000006
1385 138.387145996 46.478874 -0.6666667 0.2000006
1392 138.387145996 45.774647 -0.6666667 0.20000058
1391 138.387145996 45.774647 0.0 0.20000058
880 138.387145996 27.464788 0.0 3.4847466e-07
881 138.387145996 27.464788 -0.6666667 3.4847466e-07
888 138.387145996 24.647888 0.0 3.1273368e-07
887 138.387145996 25.352112 -0.6666667 3.2166892e-07
1088 138.309265137 35.21127 1.3333334 0.20000045
1089 138.309265137 35.21127 0.6666667 0.20000045
1096 138.309265137 33.09859 2.0 0.20000042
1095 138.309265137 33.80282 0.6666667 0.20000044
584 138.309265137 14.788733 0.0 0.2000002
585 138.309265137 14.788733 -0.6666667 0.2000002
592 138.309265137 18.309858 1.3333334 2.3231642e-07
591 138.309265137 18.309858 2.0 2.3231642e-07
1369 138.308441162 44.366196 -2.0 0.10000056
1370 138.308441162 43.661972 2.0 0.10000055
1377 138.308441162 47.183098 2.0 0.2000006
1376 138.308441162 43.661972 -2.0 0.10000055
865 138.308441162 33.09859 -0.6666667 4.1995665e-07
866 138.308441162 32.394367 0.0 4.110214e-07
873 138.308441162 30.28169 -0.6666667 3.8421567e-07
872 138.308441162 30.28169 0.0 3.8421567e-07
1095 138.35017395 33.80282 0.6666667 0.20000044
1096 138.35017395 33.09859 2.0 0.20000042
1103 138.35017395 31.690142 2.0 0.2000004
1102 138.35017395 32.394367 0.6666667 0.20000042
591 138.35017395 18.309858 2.0 2.3231642e-07
592 138.35017395 18.309858 1.3333334 2.3231642e-07
599 138.35017395 16.90141 0.6666667 2.1444595e-07
598 138.35017395 16.90141 1.3333334 2.1444595e-07
1355 138.350997925 45.774647 -2.0 0.10000058
1356 138.350997925 45.070423 2.0 0.100000575
1363 138.350997925 44.366196 2.0 0.10000056
1362 138.350997925 45.070423 -2.0 0.100000575
851 138.350997925 26.056337 -2.0 0.20000033
852 138.350997925 25.352112 -1.3333334 0.20000033
859 138.350997925 35.21127 -0.6666667 4.467624e-07
858 138.350997925 35.21127 0.0 4.467624e-07
1102 138.336898804 32.394367 0.6666667 0.20000042
1103 138.336898804 31.690142 2.0 0.2000004
1110 138.336898804 42.957745 -0.6666667 5.450501e-07
1109 138.336898804 42.957745 0.0 5.450501e-07
598 138.336898804 16.90141 1.3333334 2.1444595e-07
599 138.336898804 16.90141 0.6666667 2.1444595e-07
606 138.336898804 14.788733 2.0 1.876402e-07
605 138.336898804 15.492958 0.6666667 1.9657546e-07
1349 138.336212158 45.774647 2.0 0.10000058
1350 138.336212158 45.774647 1.3333334 0.10000058
1357 138.336212158 45.070423 1.3333334 0.100000575
1356 138.336212158 45.070423 2.0 0.100000575
845 138.336212158 27.464788 -1.3333334 0.20000035
846 138.336212158 27.464788 -2.0 0.20000035
853 138.336212158 25.352112 -2.0 0.20000033
852 138.336212158 25.352112 -1.3333334 0.20000033
1109 138.329025269 42.957745 0.0 5.450501e-07
1110 138.329025269 42.957745 -0.6666667 5.450501e-07
1117 138.329025269 41.549297 0.0 5.271796e-07
1116 138.329025269 42.25352 -2.0 5.3611484e-07
605 138.329025269 15.492958 0.6666667 1.9657546e-07
606 138.329025269 14.788733 2.0 1.876402e-07
613 138.329025269 13.380281 2.0 1.697697e-07
612 138.329025269 14.084507 0.6666667 1.7870495e-07
1334 138.329711914 43.661972 0.0 5.539854e-07
1335 138.329711914 43.661972 -0.6666667 5.539854e-07
1342 138.329711914 46.478874 2.0 0.10000059
1341 138.329711914 47.183098 0.0 0.1000006
830 138.329711914 32.394367 -1.3333334 0.20000042
831 138.329711914 32.394367 -2.0 0.20000042
838 138.329711914 29.577465 -1.3333334 0.20000038
837 138.329711914 30.28169 -2.0 0.20000039
1116 138.35269165 42.25352 -2.0 5.3611484e-07
1117 138.35269165 41.549297 0.0 5.271796e-07
1124 138.35269165 40.84507 -2.0 5.1824435e-07
1123 138.35269165 40.84507 -1.3333334 5.1824435e-07
612 138.35269165 14.084507 0.6666667 1.7870495e-07
613 138.35269165 13.380281 2.0 1.697697e-07
620 138.35269165 18.309858 1.3333334 0.10000023
619 138.35269165 18.309858 2.0 0.10000023
1328 138.352127075 44.366196 -0.6666667 5.629206e-07
1329 138.352127075 44.366196 -1.3333334 5.629206e-07
1336 138.352127075 43.661972 -1.3333334 5.539854e-07
1335 138.352127075 43.661972 -0.6666667 5.539854e-07
824 138.352127075 34.507042 -1.3333334 0.20000044
825 138.352127075 34.507042 -2.0 0.20000044
832 138.352127075 31.690142 -1.3333334 0.2000004
831 138.352127075 32.394367 -2.0 0.20000042
1123 138.317382812 40.84507 -1.3333334 5.1824435e-07
1124 138.317382812 40.84507 -2.0 5.1824435e-07
1131 138.317382812 39.43662 -1.3333334 5.0037386e-07
1130 138.317382812 39.43662 -0.6666667 5.0037386e-07
619 138.317382812 18.309858 2.0 0.10000023
620 138.317382812 18.309858 1.3333334 0.10000023
627 138.317382812 16.90141 0.6666667 0.10000022
626 138.317382812 16.90141 1.3333334 0.10000022
810 138.317932129 27.464788 -2.0 0.10000035
811 138.317932129 26.760563 -0.6666667 0.100000344
818 138.317932129 36.619717 -1.3333334 0.20000046
817 138.317932129 25.352112 -2.0 0.10000032
306 138.317932129 11.971831 2.0 1.5189921e-07
307 138.317932129 11.971831 1.3333334 1.5189921e-07
314 138.317932129 10.56338 0.6666667 1.3402871e-07
313 138.317932129 10.56338 1.3333334 1.3402871e-07
1130 138.361099243 39.43662 -0.6666667 5.0037386e-07
1131 138.361099243 39.43662 -1.3333334 5.0037386e-07
1138 138.361099243 38.028168 -0.6666667 4.8250337e-07
1137 138.361099243 38.028168 0.0 4.8250337e-07
626 138.361099243 16.90141 1.3333334 0.10000022
627 138.361099243 16.90141 0.6666667 0.10000022
634 138.361099243 14.788733 2.0 0.10000019
633 138.361099243 15.492958 0.6666667 0.100000195
1299 138.360610962 38.028168 0.6666667 0.20000048
1300 138.360610962 37.323944 2.0 0.20000048
1307 138.360610962 46.478874 -0.6666667 5.8972637e-07
1306 138.360610962 46.478874 0.0 5.8972637e-07
795 138.360610962 32.394367 -2.0 0.10000041
796 138.360610962 31.690142 -1.3333334 0.100000404
803 138.360610962 29.577465 -2.0 0.100000374
802 138.360610962 29.577465 -1.3333334 0.100000374
633 138.311447144 15.492958 0.6666667 0.100000195
634 138.311447144 14.788733 2.0 0.10000019
641 138.311447144 13.380281 1.3333334 0.10000017
640 138.311447144 13.380281 2.0 0.10000017
129 138.311447144 4.9295774 0.0 6.254673e-08
130 138.311447144 4.9295774 -0.6666667 6.254673e-08
137 138.311447144 2.1126761 0.0 2.6805743e-08
136 138.311447144 2.8169014 -0.6666667 3.5740992e-08
781 138.311920166 24.647888 -2.0 3.1273368e-07
782 138.311920166 36.619717 -1.3333334 0.10000046
789 138.311920166 34.507042 -2.0 0.10000044
788 138.311920166 34.507042 -1.3333334 0.10000044
277 138.311920166 6.338028 1.3333334 0.20000008
278 138.311920166 6.338028 0.6666667 0.20000008
285 138.311920166 4.2253523 2.0 0.20000006
284 138.311920166 4.9295774 0.6666667 0.20000006
578 138.365127563 16.90141 0.0 0.20000021
579 138.365127563 16.90141 -0.6666667 0.20000021
586 138.365127563 14.084507 0.0 0.20000018
585 138.365127563 14.788733 -0.6666667 0.2000002
74 138.365127563 11.971831 -2.0 0.20000015
75 138.365127563 11.267606 -1.3333334 0.20000015
82 138.365127563 9.154929 -2.0 0.20000012
81 138.365127563 9.154929 -1.3333334 0.20000012
768 138.364730835 28.87324 -1.3333334 3.6634515e-07
769 138.364730835 28.87324 -2.0 3.6634515e-07
776 138.364730835 26.056337 -1.3333334 3.3060417e-07
775 138.364730835 26.760563 -2.0 3.395394e-07
264 138.364730835 2.1126761 2.0 0.10000003
265 138.364730835 2.1126761 1.3333334 0.10000003
272 138.364730835 0.70422536 0.6666667 0.10000001
271 138.364730835 0.70422536 1.3333334 0.10000001
586 138.308776855 14.084507 0.0 0.20000018
587 138.308776855 14.084507 -0.6666667 0.20000018
594 138.308776855 17.605635 2.0 2.233812e-07
593 138.308776855 18.309858 0.6666667 2.3231642e-07
82 138.308776855 9.154929 -2.0 0.20000012
83 138.308776855 8.450705 -1.3333334 0.2000001
90 138.308776855 6.338028 -2.0 0.20000008
89 138.308776855 6.338028 -1.3333334 0.20000008
1266 138.309173584 39.43662 0.6666667 0.1000005
1267 138.309173584 38.732395 2.0 0.10000049
1274 138.309173584 37.323944 1.3333334 0.10000047
1273 138.309173584 37.323944 2.0 0.10000047
762 138.309173584 30.985916 -1.3333334 3.931509e-07
763 138.309173584 30.985916 -2.0 3.931509e-07
770 138.309173584 28.169014 -1.3333334 3.574099e-07
769 138.309173584 28.87324 -2.0 3.6634515e-07
593 138.366836548 18.309858 0.6666667 2.3231642e-07
594 138.366836548 17.605635 2.0 2.233812e-07
601 138.366836548 16.197184 1.3333334 2.055107e-07
600 138.366836548 16.197184 2.0 2.055107e-07
89 138.366836548 6.338028 -1.3333334 0.20000008
90 138.366836548 6.338028 -2.0 0.20000008
97 138.366836548 3.5211267 -1.3333334 0.20000005
96 138.366836548 4.2253523 -2.0 0.20000006
1287 138.366500854 40.84507 0.6666667 0.20000052
1288 138.366500854 40.140846 2.0 0.20000051
1295 138.366500854 38.732395 1.3333334 0.2000005
1294 138.366500854 38.732395 2.0 0.2000005
783 138.366500854 36.619717 -2.0 0.10000046
784 138.366500854 35.915493 -1.3333334 0.100000456
791 138.366500854 33.80282 -2.0 0.100000426
790 138.366500854 33.80282 -1.3333334 0.100000426
600 138.307785034 16.197184 2.0 2.055107e-07
601 138.307785034 16.197184 1.3333334 2.055107e-07
608 138.307785034 14.788733 0.6666667 1.876402e-07
607 138.307785034 14.788733 1.3333334 1.876402e-07
96 138.307785034 4.2253523 -2.0 0.20000006
97 138.307785034 3.5211267 -1.3333334 0.20000005
104 138.307785034 1.4084507 -2.0 0.20000002
103 138.307785034 1.4084507 -1.3333334 0.20000002
1308 138.30809021 46.478874 -1.3333334 5.8972637e-07
1309 138.30809021 46.478874 -2.0 5.8972637e-07
1316 138.30809021 45.774647 -2.0 5.807911e-07
1315 138.30809021 45.774647 -1.3333334 5.807911e-07
804 138.30809021 28.87324 -1.3333334 0.10000037
805 138.30809021 28.87324 -2.0 0.10000037
812 138.30809021 26.760563 -1.3333334 0.100000344
811 138.30809021 26.760563 -0.6666667 0.100000344
607 138.367370605 14.788733 1.3333334 1.876402e-07
608 138.367370605 14.788733 0.6666667 1.876402e-07
615 138.367370605 13.380281 0.6666667 1.697697e-07
614 138.367370605 13.380281 1.3333334 1.697697e-07
103 138.367370605 1.4084507 -1.3333334 0.20000002
104 138.367370605 1.4084507 -2.0 0.20000002
111 138.367370605 11.267606 0.0 1.4296397e-07
110 138.367370605 11.971831 -0.6666667 1.5189921e-07
601 138.309036255 16.197184 1.3333334 2.055107e-07
602 138.309036255 16.197184 0.6666667 2.055107e-07
609 138.309036255 14.788733 0.0 1.876402e-07
608 138.309036255 14.788733 0.6666667 1.876402e-07
97 138.309036255 3.5211267 -1.3333334 0.20000005
98 138.309036255 3.5211267 -2.0 0.20000005
105 138.309036255 0.70422536 -1.3333334 0.20000002
104 138.309036255 1.4084507 -2.0 0.20000002
594 138.36567688 17.605635 2.0 2.233812e-07
595 138.36567688 17.605635 1.3333334 2.233812e-07
602 138.36567688 16.197184 0.6666667 2.055107e-07
601 138.36567688 16.197184 1.3333334 2.055107e-07
90 138.36567688 6.338028 -2.0 0.20000008
91 138.36567688 5.633803 -1.3333334 0.20000008
98 138.36567688 3.5211267 -2.0 0.20000005
97 138.36567688 3.5211267 -1.3333334 0.20000005
587 138.309783936 14.084507 -0.6666667 0.20000018
588 138.309783936 13.380281 0.0 0.20000017
595 138.309783936 17.605635 1.3333334 2.233812e-07
594 138.309783936 17.605635 2.0 2.233812e-07
83 138.309783936 8.450705 -1.3333334 0.2000001
84 138.309783936 8.450705 -2.0 0.2000001
91 138.309783936 5.633803 -1.3333334 0.20000008
90 138.309783936 6.338028 -2.0 0.20000008
769 138.310089111 28.87324 -2.0 3.6634515e-07
770 138.310089111 28.169014 -1.3333334 3.574099e-07
777 138.310089111 26.056337 -2.0 3.3060417e-07
776 138.310089111 26.056337 -1.3333334 3.3060417e-07
265 138.310089111 2.1126761 1.3333334 0.10000003
266 138.310089111 2.1126761 0.6666667 0.10000003
273 138.310089111 -1.2688052e-09 2.0 0.1
272 138.310089111 0.70422536 0.6666667 0.10000001
790 138.365386963 33.80282 -1.3333334 0.100000426
791 138.365386963 33.80282 -2.0 0.100000426
798 138.365386963 30.985916 -1.3333334 0.1000004
797 138.365386963 31.690142 -2.0 0.100000404
286 138.365386963 4.2253523 1.3333334 0.20000006
287 138.365386963 4.2253523 0.6666667 0.20000006
294 138.365386963 2.1126761 2.0 0.20000003
293 138.365386963 2.8169014 0.6666667 0.20000003
811 138.309280396 26.760563 -0.6666667 0.100000344
812 138.309280396 26.760563 -1.3333334 0.100000344
819 138.309280396 36.619717 -2.0 0.20000046
818 138.309280396 36.619717 -1.3333334 0.20000046
307 138.309280396 11.971831 1.3333334 1.5189921e-07
308 138.309280396 11.971831 0.6666667 1.5189921e-07
315 138.309280396 9.859155 2.0 1.2509346e-07
314 138.309280396 10.56338 0.6666667 1.3402871e-07
1111 138.364456177 42.957745 -1.3333334 5.450501e-07
1112 138.364456177 42.957745 -2.0 5.450501e-07
1119 138.364456177 41.549297 -1.3333334 5.271796e-07
1118 138.364456177 41.549297 -0.6666667 5.271796e-07
607 138.364456177 14.788733 1.3333334 1.876402e-07
608 138.364456177 14.788733 0.6666667 1.876402e-07
615 138.364456177 13.380281 0.6666667 1.697697e-07
614 138.364456177 13.380281 1.3333334 1.697697e-07
1104 138.310638428 31.690142 1.3333334 0.2000004
1105 138.310638428 31.690142 0.6666667 0.2000004
1112 138.310638428 42.957745 -2.0 5.450501e-07
1111 138.310638428 42.957745 -1.3333334 5.450501e-07
600 138.310638428 16.197184 2.0 2.055107e-07
601 138.310638428 16.197184 1.3333334 2.055107e-07
608 138.310638428 14.788733 0.6666667 1.876402e-07
607 138.310638428 14.788733 1.3333334 1.876402e-07
1097 138.364105225 33.09859 1.3333334 0.20000042
1098 138.364105225 33.09859 0.6666667 0.20000042
1105 138.364105225 31.690142 0.6666667 0.2000004
1104 138.364105225 31.690142 1.3333334 0.2000004
593 138.364105225 18.309858 0.6666667 2.3231642e-07
594 138.364105225 17.605635 2.0 2.233812e-07
601 138.364105225 16.197184 1.3333334 2.055107e-07
600 138.364105225 16.197184 2.0 2.055107e-07
1294 138.363845825 38.732395 2.0 0.2000005
1295 138.363845825 38.732395 1.3333334 0.2000005
1302 138.363845825 37.323944 0.6666667 0.20000048
1301 138.363845825 37.323944 1.3333334 0.20000048
790 138.363845825 33.80282 -1.3333334 0.100000426
791 138.363845825 33.80282 -2.0 0.100000426
798 138.363845825 30.985916 -1.3333334 0.1000004
797 138.363845825 31.690142 -2.0 0.100000404
1090 138.311325073 34.507042 2.0 0.20000044
1091 138.311325073 34.507042 1.3333334 0.20000044
1098 138.311325073 33.09859 0.6666667 0.20000042
1097 138.311325073 33.09859 1.3333334 0.20000042
586 138.311325073 14.084507 0.0 0.20000018
587 138.311325073 14.084507 -0.6666667 0.20000018
594 138.311325073 17.605635 2.0 2.233812e-07
593 138.311325073 18.309858 0.6666667 2.3231642e-07
1273 138.311569214 37.323944 2.0 0.10000047
1274 138.311569214 37.323944 1.3333334 0.10000047
1281 138.311569214 42.25352 0.6666667 0.20000054
1280 138.311569214 42.25352 1.3333334 0.20000054
769 138.311569214 28.87324 -2.0 3.6634515e-07
770 138.311569214 28.169014 -1.3333334 3.574099e-07
777 138.311569214 26.056337 -2.0 3.3060417e-07
776 138.311569214 26.056337 -1.3333334 3.3060417e-07
580 138.364379883 16.197184 0.0 0.20000021
581 138.364379883 16.197184 -0.6666667 0.20000021
588 138.364379883 13.380281 0.0 0.20000017
587 138.364379883 14.084507 -0.6666667 0.20000018
76 138.364379883 11.267606 -2.0 0.20000015
77 138.364379883 10.56338 -1.3333334 0.20000014
84 138.364379883 8.450705 -2.0 0.2000001
83 138.364379883 8.450705 -1.3333334 0.2000001
775 138.364013672 26.760563 -2.0 3.395394e-07
776 138.364013672 26.056337 -1.3333334 3.3060417e-07
783 138.364013672 36.619717 -2.0 0.10000046
782 138.364013672 36.619717 -1.3333334 0.10000046
271 138.364013672 0.70422536 1.3333334 0.10000001
272 138.364013672 0.70422536 0.6666667 0.10000001
279 138.364013672 5.633803 2.0 0.20000008
278 138.364013672 6.338028 0.6666667 0.20000008
782 138.362625122 36.619717 -1.3333334 0.10000046
783 138.362625122 36.619717 -2.0 0.10000046
790 138.362625122 33.80282 -1.3333334 0.100000426
789 138.362625122 34.507042 -2.0 0.10000044
278 138.362625122 6.338028 0.6666667 0.20000008
279 138.362625122 5.633803 2.0 0.20000008
286 138.362625122 4.2253523 1.3333334 0.20000006
285 138.362625122 4.2253523 2.0 0.20000006
1137 138.311889648 38.028168 0.0 4.8250337e-07
1138 138.311889648 38.028168 -0.6666667 4.8250337e-07
1145 138.311889648 36.619717 -1.3333334 4.6463285e-07
1144 138.311889648 37.323944 -2.0 4.7356812e-07
633 138.311889648 15.492958 0.6666667 0.100000195
634 138.311889648 14.788733 2.0 0.10000019
641 138.311889648 13.380281 1.3333334 0.10000017
640 138.311889648 13.380281 2.0 0.10000017
1285 138.312271118 40.84507 2.0 0.20000052
1286 138.312271118 40.84507 1.3333334 0.20000052
1293 138.312271118 39.43662 0.6666667 0.20000051
1292 138.312271118 39.43662 1.3333334 0.20000051
781 138.312271118 24.647888 -2.0 3.1273368e-07
782 138.312271118 36.619717 -1.3333334 0.10000046
789 138.312271118 34.507042 -2.0 0.10000044
788 138.312271118 34.507042 -1.3333334 0.10000044
1138 138.313293457 38.028168 -0.6666667 4.8250337e-07
1139 138.313293457 38.028168 -1.3333334 4.8250337e-07
1146 138.313293457 36.619717 -2.0 4.6463285e-07
1145 138.313293457 36.619717 -1.3333334 4.6463285e-07
634 138.313293457 14.788733 2.0 0.10000019
635 138.313293457 14.788733 1.3333334 0.10000019
642 138.313293457 13.380281 0.6666667 0.10000017
641 138.313293457 13.380281 1.3333334 0.10000017
631 138.361129761 15.492958 2.0 0.100000195
632 138.361129761 15.492958 1.3333334 0.100000195
639 138.361129761 14.084507 0.6666667 0.10000018
638 138.361129761 14.084507 1.3333334 0.10000018
127 138.361129761 5.633803 0.0 7.1481985e-08
128 138.361129761 5.633803 -0.6666667 7.1481985e-08
135 138.361129761 2.8169014 0.0 3.5740992e-08
134 138.361129761 3.5211267 -0.6666667 4.4676238e-08
796 138.360702515 31.690142 -1.3333334 0.100000404
797 138.360702515 31.690142 -2.0 0.100000404
804 138.360702515 28.87324 -1.3333334 0.10000037
803 138.360702515 29.577465 -2.0 0.100000374
292 138.360702515 2.8169014 1.3333334 0.20000003
293 138.360702515 2.8169014 0.6666667 0.20000003
300 138.360702515 0.70422536 2.0 0.20000002
299 138.360702515 1.4084507 0.6666667 0.20000002
1135 138.359893799 38.732395 -1.3333334 4.9143864e-07
1136 138.359893799 38.732395 -2.0 4.9143864e-07
1143 138.359893799 37.323944 -1.3333334 4.7356812e-07
1142 138.359893799 37.323944 -0.6666667 4.7356812e-07
631 138.359893799 15.492958 2.0 0.100000195
632 138.359893799 15.492958 1.3333334 0.100000195
639 138.359893799 14.084507 0.6666667 0.10000018
638 138.359893799 14.084507 1.3333334 0.10000018
1300 138.359573364 37.323944 2.0 0.20000048
1301 138.359573364 37.323944 1.3333334 0.20000048
1308 138.359573364 46.478874 -1.3333334 5.8972637e-07
1307 138.359573364 46.478874 -0.6666667 5.8972637e-07
796 138.359573364 31.690142 -1.3333334 0.100000404
797 138.359573364 31.690142 -2.0 0.100000404
804 138.359573364 28.87324 -1.3333334 0.10000037
803 138.359573364 29.577465 -2.0 0.100000374
624 138.316711426 17.605635 0.6666667 0.100000225
625 138.316711426 16.90141 2.0 0.10000022
632 138.316711426 15.492958 1.3333334 0.100000195
631 138.316711426 15.492958 2.0 0.100000195
120 138.316711426 8.450705 -0.6666667 1.0722298e-07
121 138.316711426 7.746479 0.0 9.828773e-08
128 138.316711426 5.633803 -0.6666667 7.1481985e-08
127 138.316711426 5.633803 0.0 7.1481985e-08
1314 138.317169189 45.774647 -0.6666667 5.807911e-07
1315 138.317169189 45.774647 -1.3333334 5.807911e-07
1322 138.317169189 45.070423 -1.3333334 5.718559e-07
1321 138.317169189 45.070423 -0.6666667 5.718559e-07
810 138.317169189 27.464788 -2.0 0.10000035
811 138.317169189 26.760563 -0.6666667 0.100000344
818 138.317169189 36.619717 -1.3333334 0.20000046
817 138.317169189 25.352112 -2.0 0.10000032
1128 138.317764282 40.140846 -2.0 5.0930913e-07
1129 138.317764282 39.43662 0.0 5.0037386e-07
1136 138.317764282 38.732395 -2.0 4.9143864e-07
1135 138.317764282 38.732395 -1.3333334 4.9143864e-07
624 138.317764282 17.605635 0.6666667 0.100000225
625 138.317764282 16.90141 2.0 0.10000022
632 138.317764282 15.492958 1.3333334 0.100000195
631 138.317764282 15.492958 2.0 0.100000195
802 138.318084717 29.577465 -1.3333334 0.100000374
803 138.318084717 29.577465 -2.0 0.100000374
810 138.318084717 27.464788 -2.0 0.10000035
809 138.318084717 27.464788 -1.3333334 0.10000035
298 138.318084717 1.4084507 1.3333334 0.20000002
299 138.318084717 1.4084507 0.6666667 0.20000002
306 138.318084717 11.971831 2.0 1.5189921e-07
305 138.318084717 -2.5376103e-09 0.6666667 0.2
617 138.354217529 12.676056 1.3333334 1.6083446e-07
618 138.354217529 12.676056 0.6666667 1.6083446e-07
625 138.354217529 16.90141 2.0 0.10000022
624 138.354217529 17.605635 0.6666667 0.100000225
113 138.354217529 10.56338 0.0 1.3402871e-07
114 138.354217529 10.56338 -0.6666667 1.3402871e-07
121 138.354217529 7.746479 0.0 9.828773e-08
120 138.354217529 8.450705 -0.6666667 1.0722298e-07
816 138.35369873 25.352112 -1.3333334 0.10000032
817 138.35369873 25.352112 -2.0 0.10000032
824 138.35369873 34.507042 -1.3333334 0.20000044
823 138.35369873 35.21127 -2.0 0.20000045
312 138.35369873 10.56338 2.0 1.3402871e-07
313 138.35369873 10.56338 1.3333334 1.3402871e-07
320 138.35369873 9.154929 0.6666667 1.1615821e-07
319 138.35369873 9.154929 1.3333334 1.1615821e-07
817 138.35307312 25.352112 -2.0 0.10000032
818 138.35307312 36.619717 -1.3333334 0.20000046
825 138.35307312 34.507042 -2.0 0.20000044
824 138.35307312 34.507042 -1.3333334 0.20000044
313 138.35307312 10.56338 1.3333334 1.3402871e-07
314 138.35307312 10.56338 0.6666667 1.3402871e-07
321 138.35307312 8.450705 2.0 1.0722298e-07
320 138.35307312 9.154929 0.6666667 1.1615821e-07
610 138.326416016 14.084507 2.0 1.7870495e-07
611 138.326416016 14.084507 1.3333334 1.7870495e-07
618 138.326416016 12.676056 0.6666667 1.6083446e-07
617 138.326416016 12.676056 1.3333334 1.6083446e-07
106 138.326416016 0.70422536 -2.0 0.20000002
107 138.326416016 -2.5376103e-09 -1.3333334 0.2
114 138.326416016 10.56338 -0.6666667 1.3402871e-07
113 138.326416016 10.56338 0.0 1.3402871e-07
831 138.326950073 32.394367 -2.0 0.20000042
832 138.326950073 31.690142 -1.3333334 0.2000004
839 138.326950073 29.577465 -2.0 0.20000038
838 138.326950073 29.577465 -1.3333334 0.20000038
327 138.326950073 7.0422535 2.0 8.9352476e-08
328 138.326950073 7.0422535 1.3333334 8.9352476e-08
335 138.326950073 11.971831 0.6666667 0.10000015
334 138.326950073 11.971831 1.3333334 0.10000015
1114 138.326782227 42.25352 -0.6666667 5.3611484e-07
1115 138.326782227 42.25352 -1.3333334 5.3611484e-07
1122 138.326782227 40.84507 -0.6666667 5.1824435e-07
1121 138.326782227 40.84507 0.0 5.1824435e-07
610 138.326782227 14.084507 2.0 1.7870495e-07
611 138.326782227 14.084507 1.3333334 1.7870495e-07
618 138.326782227 12.676056 0.6666667 1.6083446e-07
617 138.326782227 12.676056 1.3333334 1.6083446e-07
1335 138.327148438 43.661972 -0.6666667 5.539854e-07
1336 138.327148438 43.661972 -1.3333334 5.539854e-07
1343 138.327148438 46.478874 1.3333334 0.10000059
1342 138.327148438 46.478874 2.0 0.10000059
831 138.327148438 32.394367 -2.0 0.20000042
832 138.327148438 31.690142 -1.3333334 0.2000004
839 138.327148438 29.577465 -2.0 0.20000038
838 138.327148438 29.577465 -1.3333334 0.20000038
603 138.341033936 15.492958 2.0 1.9657546e-07
604 138.341033936 15.492958 1.3333334 1.9657546e-07
611 138.341033936 14.084507 1.3333334 1.7870495e-07
610 138.341033936 14.084507 2.0 1.7870495e-07
99 138.341033936 2.8169014 -1.3333334 0.20000003
100 138.341033936 2.8169014 -2.0 0.20000003
107 138.341033936 -2.5376103e-09 -1.3333334 0.2
106 138.341033936 0.70422536 -2.0 0.20000002
837 138.340393066 30.28169 -2.0 0.20000039
838 138.340393066 29.577465 -1.3333334 0.20000038
845 138.340393066 27.464788 -1.3333334 0.20000035
844 138.340393066 27.464788 -0.6666667 0.20000035
333 138.340393066 11.971831 2.0 0.10000015
334 138.340393066 11.971831 1.3333334 0.10000015
341 138.340393066 10.56338 0.6666667 0.100000136
340 138.340393066 10.56338 1.3333334 0.100000136
1107 138.341201782 30.985916 1.3333334 0.20000039
1108 138.341201782 30.985916 0.6666667 0.20000039
1115 138.341201782 42.25352 -1.3333334 5.3611484e-07
1114 138.341201782 42.25352 -0.6666667 5.3611484e-07
603 138.341201782 15.492958 2.0 1.9657546e-07
604 138.341201782 15.492958 1.3333334 1.9657546e-07
611 138.341201782 14.084507 1.3333334 1.7870495e-07
610 138.341201782 14.084507 2.0 1.7870495e-07
1341 138.340698242 47.183098 0.0 0.1000006
1342 138.340698242 46.478874 2.0 0.10000059
1349 138.340698242 45.774647 2.0 0.10000058
1348 138.340698242 46.478874 -2.0 0.10000059
837 138.340698242 30.28169 -2.0 0.20000039
838 138.340698242 29.577465 -1.3333334 0.20000038
845 138.340698242 27.464788 -1.3333334 0.20000035
844 138.340698242 27.464788 -0.6666667 0.20000035
596 138.34413147 17.605635 0.6666667 2.233812e-07
597 138.34413147 16.90141 2.0 2.1444595e-07
604 138.34413147 15.492958 1.3333334 1.9657546e-07
603 138.34413147 15.492958 2.0 1.9657546e-07
92 138.34413147 5.633803 -2.0 0.20000008
93 138.34413147 4.9295774 -1.3333334 0.20000006
100 138.34413147 2.8169014 -2.0 0.20000003
99 138.34413147 2.8169014 -1.3333334 0.20000003
852 138.344772339 25.352112 -1.3333334 0.20000033
853 138.344772339 25.352112 -2.0 0.20000033
860 138.344772339 34.507042 0.0 4.3782714e-07
859 138.344772339 35.21127 -0.6666667 4.467624e-07
348 138.344772339 8.450705 2.0 0.100000106
349 138.344772339 8.450705 1.3333334 0.100000106
356 138.344772339 7.0422535 0.6666667 0.10000009
355 138.344772339 7.0422535 1.3333334 0.10000009
1100 138.343307495 32.394367 2.0 0.20000042
1101 138.343307495 32.394367 1.3333334 0.20000042
1108 138.343307495 30.985916 0.6666667 0.20000039
1107 138.343307495 30.985916 1.3333334 0.20000039
596 138.343307495 17.605635 0.6666667 2.233812e-07
597 138.343307495 16.90141 2.0 2.1444595e-07
604 138.343307495 15.492958 1.3333334 1.9657546e-07
603 138.343307495 15.492958 2.0 1.9657546e-07
1356 138.343734741 45.070423 2.0 0.100000575
1357 138.343734741 45.070423 1.3333334 0.100000575
1364 138.343734741 44.366196 1.3333334 0.10000056
1363 138.343734741 44.366196 2.0 0.10000056
852 138.343734741 25.352112 -1.3333334 0.20000033
853 138.343734741 25.352112 -2.0 0.20000033
860 138.343734741 34.507042 0.0 4.3782714e-07
859 138.343734741 35.21127 -0.6666667 4.467624e-07
589 138.317886353 13.380281 -0.6666667 0.20000017
590 138.317886353 12.676056 -0.6666667 0.20000017
597 138.317886353 16.90141 2.0 2.1444595e-07
596 138.317886353 17.605635 0.6666667 2.233812e-07
85 138.317886353 7.746479 -1.3333334 0.2000001
86 138.317886353 7.746479 -2.0 0.2000001
93 138.317886353 4.9295774 -1.3333334 0.20000006
92 138.317886353 5.633803 -2.0 0.20000008
866 138.317108154 32.394367 0.0 4.110214e-07
867 138.317108154 32.394367 -0.6666667 4.110214e-07
874 138.317108154 29.577465 0.0 3.7528042e-07
873 138.317108154 30.28169 -0.6666667 3.8421567e-07
362 138.317108154 11.267606 2.0 0.20000015
363 138.317108154 11.267606 1.3333334 0.20000015
370 138.317108154 9.859155 0.6666667 0.20000012
369 138.317108154 9.859155 1.3333334 0.20000012
1093 138.319564819 33.80282 2.0 0.20000044
1094 138.319564819 33.80282 1.3333334 0.20000044
1101 138.319564819 32.394367 1.3333334 0.20000042
1100 138.319564819 32.394367 2.0 0.20000042
589 138.319564819 13.380281 -0.6666667 0.20000017
590 138.319564819 12.676056 -0.6666667 0.20000017
597 138.319564819 16.90141 2.0 2.1444595e-07
596 138.319564819 17.605635 0.6666667 2.233812e-07
1370 138.31892395 43.661972 2.0 0.10000055
1371 138.31892395 43.661972 1.3333334 0.10000055
1378 138.31892395 47.183098 1.3333334 0.2000006
1377 138.31892395 47.183098 2.0 0.2000006
866 138.31892395 32.394367 0.0 4.110214e-07
867 138.31892395 32.394367 -0.6666667 4.110214e-07
874 138.31892395 29.577465 0.0 3.7528042e-07
873 138.31892395 30.28169 -0.6666667 3.8421567e-07
582 138.374221802 15.492958 0.0 0.2000002
583 138.374221802 15.492958 -0.6666667 0.2000002
590 138.374221802 12.676056 -0.6666667 0.20000017
589 138.374221802 13.380281 -0.6666667 0.20000017
78 138.374221802 10.56338 -2.0 0.20000014
79 138.374221802 9.859155 -1.3333334 0.20000012
86 138.374221802 7.746479 -2.0 0.2000001
85 138.374221802 7.746479 -1.3333334 0.2000001
872 138.374984741 30.28169 0.0 3.8421567e-07
873 138.374984741 30.28169 -0.6666667 3.8421567e-07
880 138.374984741 27.464788 0.0 3.4847466e-07
879 138.374984741 28.169014 -0.6666667 3.574099e-07
368 138.374984741 9.859155 2.0 0.20000012
369 138.374984741 9.859155 1.3333334 0.20000012
376 138.374984741 8.450705 0.6666667 0.2000001
375 138.374984741 8.450705 1.3333334 0.2000001
1086 138.371566772 35.915493 0.6666667 0.20000046
1087 138.371566772 35.21127 2.0 0.20000045
1094 138.371566772 33.80282 1.3333334 0.20000044
1093 138.371566772 33.80282 2.0 0.20000044
582 138.371566772 15.492958 0.0 0.2000002
583 138.371566772 15.492958 -0.6666667 0.2000002
590 138.371566772 12.676056 -0.6666667 0.20000017
589 138.371566772 13.380281 -0.6666667 0.20000017
575 138.279708862 18.309858 -0.6666667 0.20000024
576 138.279708862 17.605635 0.0 0.20000023
583 138.279708862 15.492958 -0.6666667 0.2000002
582 138.279708862 15.492958 0.0 0.2000002
71 138.279708862 -1.2688052e-09 -1.3333334 0.1
72 138.279708862 -1.2688052e-09 -2.0 0.1
79 138.279708862 9.859155 -1.3333334 0.20000012
78 138.279708862 10.56338 -2.0 0.20000014
1380 138.278747559 47.183098 0.0 0.2000006
1381 138.278747559 46.478874 2.0 0.2000006
1388 138.278747559 45.774647 2.0 0.20000058
1387 138.278747559 46.478874 -2.0 0.2000006
876 138.278747559 28.87324 0.0 3.6634515e-07
877 138.278747559 28.87324 -0.6666667 3.6634515e-07
884 138.278747559 26.056337 0.0 3.3060417e-07
883 138.278747559 26.760563 -0.6666667 3.395394e-07
1079 138.283630371 30.985916 1.3333334 0.1000004
1080 138.283630371 30.985916 0.6666667 0.1000004
1087 138.283630371 35.21127 2.0 0.20000045
1086 138.283630371 35.915493 0.6666667 0.20000046
575 138.283630371 18.309858 -0.6666667 0.20000024
576 138.283630371 17.605635 0.0 0.20000023
583 138.283630371 15.492958 -0.6666667 0.2000002
582 138.283630371 15.492958 0.0 0.2000002
1070 138.422683716 33.09859 1.3333334 0.10000042
1071 138.422683716 33.09859 0.6666667 0.10000042
1078 138.422683716 30.985916 2.0 0.1000004
1077 138.422683716 31.690142 0.6666667 0.100000404
566 138.422683716 21.12676 0.0 0.20000027
567 138.422683716 21.12676 -0.6666667 0.20000027
574 138.422683716 18.309858 0.0 0.20000024
573 138.422683716 19.014084 -0.6666667 0.20000024
871 138.423583984 30.985916 -0.6666667 3.931509e-07
872 138.423583984 30.28169 0.0 3.8421567e-07
879 138.423583984 28.169014 -0.6666667 3.574099e-07
878 138.423583984 28.169014 0.0 3.574099e-07
367 138.423583984 10.56338 0.6666667 0.20000014
368 138.423583984 9.859155 2.0 0.20000012
375 138.423583984 8.450705 1.3333334 0.2000001
374 138.423583984 8.450705 2.0 0.2000001
572 138.417434692 19.014084 0.0 0.20000024
573 138.417434692 19.014084 -0.6666667 0.20000024
580 138.417434692 16.197184 0.0 0.20000021
579 138.417434692 16.90141 -0.6666667 0.20000021
68 138.417434692 1.4084507 -2.0 0.10000002
69 138.417434692 0.70422536 -1.3333334 0.10000001
76 138.417434692 11.267606 -2.0 0.20000015
75 138.417434692 11.267606 -1.3333334 0.20000015
876 138.417922974 28.87324 0.0 3.6634515e-07
877 138.417922974 28.87324 -0.6666667 3.6634515e-07
884 138.417922974 26.056337 0.0 3.3060417e-07
883 138.417922974 26.760563 -0.6666667 3.395394e-07
372 138.417922974 9.154929 1.3333334 0.20000012
373 138.417922974 9.154929 0.6666667 0.20000012
380 138.417922974 7.0422535 2.0 0.20000009
379 138.417922974 7.746479 0.6666667 0.2000001
1068 138.219802856 33.80282 0.6666667 0.100000426
1069 138.219802856 33.09859 2.0 0.10000042
1076 138.219802856 31.690142 1.3333334 0.100000404
1075 138.219802856 31.690142 2.0 0.100000404
564 138.219802856 21.830986 0.0 0.20000029
565 138.219802856 21.830986 -0.6666667 0.20000029
572 138.219802856 19.014084 0.0 0.20000024
571 138.219802856 19.71831 -0.6666667 0.20000026
1367 138.218597412 44.366196 -0.6666667 0.10000056
1368 138.218597412 44.366196 -1.3333334 0.10000056
1375 138.218597412 43.661972 -1.3333334 0.10000055
1374 138.218597412 43.661972 -0.6666667 0.10000055
863 138.218597412 33.80282 -0.6666667 4.2889192e-07
864 138.218597412 33.09859 0.0 4.1995665e-07
871 138.218597412 30.985916 -0.6666667 3.931509e-07
870 138.218597412 30.985916 0.0 3.931509e-07
571 138.226730347 19.71831 -0.6666667 0.20000026
572 138.226730347 19.014084 0.0 0.20000024
579 138.226730347 16.90141 -0.6666667 0.20000021
578 138.226730347 16.90141 0.0 0.20000021
67 138.226730347 1.4084507 -1.3333334 0.10000002
68 138.226730347 1.4084507 -2.0 0.10000002
75 138.226730347 11.267606 -1.3333334 0.20000015
74 138.226730347 11.971831 -2.0 0.20000015
864 138.225738525 33.09859 0.0 4.1995665e-07
865 138.225738525 33.09859 -0.6666667 4.1995665e-07
872 138.225738525 30.28169 0.0 3.8421567e-07
871 138.225738525 30.985916 -0.6666667 3.931509e-07
360 138.225738525 11.971831 1.3333334 0.20000015
361 138.225738525 11.971831 0.6666667 0.20000015
368 138.225738525 9.859155 2.0 0.20000012
367 138.225738525 10.56338 0.6666667 0.20000014
1061 138.497390747 35.21127 1.3333334 0.10000045
1062 138.497390747 35.21127 0.6666667 0.10000045
1069 138.497390747 33.09859 2.0 0.10000042
1068 138.497390747 33.80282 0.6666667 0.100000426
557 138.497390747 24.647888 -0.6666667 0.20000032
558 138.497390747 23.943663 0.0 0.2000003
565 138.497390747 21.830986 -0.6666667 0.20000029
564 138.497390747 21.830986 0.0 0.20000029
857 138.498443604 35.915493 -0.6666667 4.5569763e-07
858 138.498443604 35.21127 0.0 4.467624e-07
865 138.498443604 33.09859 -0.6666667 4.1995665e-07
864 138.498443604 33.09859 0.0 4.1995665e-07
353 138.498443604 7.746479 0.6666667 0.1000001
354 138.498443604 7.0422535 2.0 0.10000009
361 138.498443604 11.971831 0.6666667 0.20000015
360 138.498443604 11.971831 1.3333334 0.20000015
558 138.488922119 23.943663 0.0 0.2000003
559 138.488922119 23.943663 -0.6666667 0.2000003
566 138.488922119 21.12676 0.0 0.20000027
565 138.488922119 21.830986 -0.6666667 0.20000029
54 138.488922119 6.338028 -2.0 0.10000008
55 138.488922119 5.633803 -1.3333334 0.100000076
62 138.488922119 3.5211267 -2.0 0.100000046
61 138.488922119 3.5211267 -1.3333334 0.100000046
858 138.489425659 35.21127 0.0 4.467624e-07
859 138.489425659 35.21127 -0.6666667 4.467624e-07
866 138.489425659 32.394367 0.0 4.110214e-07
865 138.489425659 33.09859 -0.6666667 4.1995665e-07
354 138.489425659 7.0422535 2.0 0.10000009
355 138.489425659 7.0422535 1.3333334 0.10000009
362 138.489425659 11.267606 2.0 0.20000015
361 138.489425659 11.971831 0.6666667 0.20000015
1062 138.497390747 35.21127 0.6666667 0.10000045
1063 138.497390747 34.507042 2.0 0.10000044
1070 138.497390747 33.09859 1.3333334 0.10000042
1069 138.497390747 33.09859 2.0 0.10000042
558 138.497390747 23.943663 0.0 0.2000003
559 138.497390747 23.943663 -0.6666667 0.2000003
566 138.497390747 21.12676 0.0 0.20000027
565 138.497390747 21.830986 -0.6666667 0.20000029
1063 138.535125732 34.507042 2.0 0.10000044
1064 138.535125732 34.507042 1.3333334 0.10000044
1071 138.535125732 33.09859 0.6666667 0.10000042
1070 138.535125732 33.09859 1.3333334 0.10000042
559 138.535125732 23.943663 -0.6666667 0.2000003
560 138.535125732 23.239437 0.0 0.2000003
567 138.535125732 21.12676 -0.6666667 0.20000027
566 138.535125732 21.12676 0.0 0.20000027
1075 138.226730347 31.690142 2.0 0.100000404
1076 138.226730347 31.690142 1.3333334 0.100000404
1083 138.226730347 36.619717 0.6666667 0.20000046
1082 138.226730347 36.619717 1.3333334 0.20000046
571 138.226730347 19.71831 -0.6666667 0.20000026
572 138.226730347 19.014084 0.0 0.20000024
579 138.226730347 16.90141 -0.6666667 0.20000021
578 138.226730347 16.90141 0.0 0.20000021
565 138.219802856 21.830986 -0.6666667 0.20000029
566 138.219802856 21.12676 0.0 0.20000027
573 138.219802856 19.014084 -0.6666667 0.20000024
572 138.219802856 19.014084 0.0 0.20000024
61 138.219802856 3.5211267 -1.3333334 0.100000046
62 138.219802856 3.5211267 -2.0 0.100000046
69 138.219802856 0.70422536 -1.3333334 0.10000001
68 138.219802856 1.4084507 -2.0 0.10000002
1361 138.489425659 45.070423 -1.3333334 0.100000575
1362 138.489425659 45.070423 -2.0 0.100000575
1369 138.489425659 44.366196 -2.0 0.10000056
1368 138.489425659 44.366196 -1.3333334 0.10000056
857 138.489425659 35.915493 -0.6666667 4.5569763e-07
858 138.489425659 35.21127 0.0 4.467624e-07
865 138.489425659 33.09859 -0.6666667 4.1995665e-07
864 138.489425659 33.09859 0.0 4.1995665e-07
862 138.498443604 33.80282 0.0 4.2889192e-07
863 138.498443604 33.80282 -0.6666667 4.2889192e-07
870 138.498443604 30.985916 0.0 3.931509e-07
869 138.498443604 31.690142 -0.6666667 4.0208616e-07
358 138.498443604 12.676056 0.0 0.20000017
359 138.498443604 11.971831 2.0 0.20000015
366 138.498443604 10.56338 1.3333334 0.20000014
365 138.498443604 10.56338 2.0 0.20000014
863 138.536621094 33.80282 -0.6666667 4.2889192e-07
864 138.536621094 33.09859 0.0 4.1995665e-07
871 138.536621094 30.985916 -0.6666667 3.931509e-07
870 138.536621094 30.985916 0.0 3.931509e-07
359 138.536621094 11.971831 2.0 0.20000015
360 138.536621094 11.971831 1.3333334 0.20000015
367 138.536621094 10.56338 0.6666667 0.20000014
366 138.536621094 10.56338 1.3333334 0.20000014
1368 138.225738525 44.366196 -1.3333334 0.10000056
1369 138.225738525 44.366196 -2.0 0.10000056
1376 138.225738525 43.661972 -2.0 0.10000055
1375 138.225738525 43.661972 -1.3333334 0.10000055
864 138.225738525 33.09859 0.0 4.1995665e-07
865 138.225738525 33.09859 -0.6666667 4.1995665e-07
872 138.225738525 30.28169 0.0 3.8421567e-07
871 138.225738525 30.985916 -0.6666667 3.931509e-07
869 138.218597412 31.690142 -0.6666667 4.0208616e-07
870 138.218597412 30.985916 0.0 3.931509e-07
877 138.218597412 28.87324 -0.6666667 3.6634515e-07
876 138.218597412 28.87324 0.0 3.6634515e-07
365 138.218597412 10.56338 2.0 0.20000014
366 138.218597412 10.56338 1.3333334 0.20000014
373 138.218597412 9.154929 0.6666667 0.20000012
372 138.218597412 9.154929 1.3333334 0.20000012
566 138.19102478 21.12676 0.0 0.20000027
567 138.19102478 21.12676 -0.6666667 0.20000027
574 138.19102478 18.309858 0.0 0.20000024
573 138.19102478 19.014084 -0.6666667 0.20000024
62 138.19102478 3.5211267 -2.0 0.100000046
63 138.19102478 2.8169014 -1.3333334 0.10000004
70 138.19102478 0.70422536 -2.0 0.10000001
69 138.19102478 0.70422536 -1.3333334 0.10000001
1373 138.189849854 43.661972 0.0 0.10000055
1374 138.189849854 43.661972 -0.6666667 0.10000055
1381 138.189849854 46.478874 2.0 0.2000006
1380 138.189849854 47.183098 0.0 0.2000006
869 138.189849854 31.690142 -0.6666667 4.0208616e-07
870 138.189849854 30.985916 0.0 3.931509e-07
877 138.189849854 28.87324 -0.6666667 3.6634515e-07
876 138.189849854 28.87324 0.0 3.6634515e-07
579 138.417434692 16.90141 -0.6666667 0.20000021
580 138.417434692 16.197184 0.0 0.20000021
587 138.417434692 14.084507 -0.6666667 0.20000018
586 138.417434692 14.084507 0.0 0.20000018
75 138.417434692 11.267606 -1.3333334 0.20000015
76 138.417434692 11.267606 -2.0 0.20000015
83 138.417434692 8.450705 -1.3333334 0.2000001
82 138.417434692 9.154929 -2.0 0.20000012
877 138.417922974 28.87324 -0.6666667 3.6634515e-07
878 138.417922974 28.169014 0.0 3.574099e-07
885 138.417922974 26.056337 -0.6666667 3.3060417e-07
884 138.417922974 26.056337 0.0 3.3060417e-07
373 138.417922974 9.154929 0.6666667 0.20000012
374 138.417922974 8.450705 2.0 0.2000001
381 138.417922974 7.0422535 1.3333334 0.20000009
380 138.417922974 7.0422535 2.0 0.20000009
573 138.422698975 19.014084 -0.6666667 0.20000024
574 138.422698975 18.309858 0.0 0.20000024
581 138.422698975 16.197184 -0.6666667 0.20000021
580 138.422698975 16.197184 0.0 0.20000021
69 138.422698975 0.70422536 -1.3333334 0.10000001
70 138.422698975 0.70422536 -2.0 0.10000001
77 138.422698975 10.56338 -1.3333334 0.20000014
76 138.422698975 11.267606 -2.0 0.20000015
1076 138.444412231 31.690142 1.3333334 0.100000404
1077 138.444412231 31.690142 0.6666667 0.100000404
1084 138.444412231 35.915493 2.0 0.20000046
1083 138.444412231 36.619717 0.6666667 0.20000046
572 138.444412231 19.014084 0.0 0.20000024
573 138.444412231 19.014084 -0.6666667 0.20000024
580 138.444412231 16.197184 0.0 0.20000021
579 138.444412231 16.90141 -0.6666667 0.20000021
878 138.423599243 28.169014 0.0 3.574099e-07
879 138.423599243 28.169014 -0.6666667 3.574099e-07
886 138.423599243 25.352112 0.0 3.2166892e-07
885 138.423599243 26.056337 -0.6666667 3.3060417e-07
374 138.423599243 8.450705 2.0 0.2000001
375 138.423599243 8.450705 1.3333334 0.2000001
382 138.423599243 7.0422535 0.6666667 0.20000009
381 138.423599243 7.0422535 1.3333334 0.20000009
1374 138.445632935 43.661972 -0.6666667 0.10000055
1375 138.445632935 43.661972 -1.3333334 0.10000055
1382 138.445632935 46.478874 1.3333334 0.2000006
1381 138.445632935 46.478874 2.0 0.2000006
870 138.445632935 30.985916 0.0 3.931509e-07
871 138.445632935 30.985916 -0.6666667 3.931509e-07
878 138.445632935 28.169014 0.0 3.574099e-07
877 138.445632935 28.87324 -0.6666667 3.6634515e-07
576 138.283630371 17.605635 0.0 0.20000023
577 138.283630371 17.605635 -0.6666667 0.20000023
584 138.283630371 14.788733 0.0 0.2000002
583 138.283630371 15.492958 -0.6666667 0.2000002
72 138.283630371 -1.2688052e-09 -2.0 0.1
73 138.283630371 11.971831 -1.3333334 0.20000015
80 138.283630371 9.859155 -2.0 0.20000012
79 138.283630371 9.859155 -1.3333334 0.20000012
1381 138.282852173 46.478874 2.0 0.2000006
1382 138.282852173 46.478874 1.3333334 0.2000006
1389 138.282852173 45.774647 1.3333334 0.20000058
1388 138.282852173 45.774647 2.0 0.20000058
877 138.282852173 28.87324 -0.6666667 3.6634515e-07
878 138.282852173 28.169014 0.0 3.574099e-07
885 138.282852173 26.056337 -0.6666667 3.3060417e-07
884 138.282852173 26.056337 0.0 3.3060417e-07
879 138.282852173 28.169014 -0.6666667 3.574099e-07
880 138.282852173 27.464788 0.0 3.4847466e-07
887 138.282852173 25.352112 -0.6666667 3.2166892e-07
886 138.282852173 25.352112 0.0 3.2166892e-07
375 138.282852173 8.450705 1.3333334 0.2000001
376 138.282852173 8.450705 0.6666667 0.2000001
383 138.282852173 23.943663 -1.3333334 3.0379843e-07
382 138.282852173 7.0422535 0.6666667 0.20000009
1080 138.279708862 30.985916 0.6666667 0.1000004
1081 138.279708862 36.619717 2.0 0.20000046
1088 138.279708862 35.21127 1.3333334 0.20000045
1087 138.279708862 35.21127 2.0 0.20000045
576 138.279708862 17.605635 0.0 0.20000023
577 138.279708862 17.605635 -0.6666667 0.20000023
584 138.279708862 14.788733 0.0 0.2000002
583 138.279708862 15.492958 -0.6666667 0.2000002
1383 138.278747559 46.478874 0.6666667 0.2000006
1384 138.278747559 46.478874 0.0 0.2000006
1391 138.278747559 45.774647 0.0 0.20000058
1390 138.278747559 45.774647 0.6666667 0.20000058
879 138.278747559 28.169014 -0.6666667 3.574099e-07
880 138.278747559 27.464788 0.0 3.4847466e-07
887 138.278747559 25.352112 -0.6666667 3.2166892e-07
886 138.278747559 25.352112 0.0 3.2166892e-07
577 138.263504028 17.605635 -0.6666667 0.20000023
578 138.263504028 16.90141 0.0 0.20000021
585 138.263504028 14.788733 -0.6666667 0.2000002
584 138.263504028 14.788733 0.0 0.2000002
73 138.263504028 11.971831 -1.3333334 0.20000015
74 138.263504028 11.971831 -2.0 0.20000015
81 138.263504028 9.154929 -1.3333334 0.20000012
80 138.263504028 9.859155 -2.0 0.20000012
880 138.262512207 27.464788 0.0 3.4847466e-07
881 138.262512207 27.464788 -0.6666667 3.4847466e-07
888 138.262512207 24.647888 0.0 3.1273368e-07
887 138.262512207 25.352112 -0.6666667 3.2166892e-07
376 138.262512207 8.450705 0.6666667 0.2000001
377 138.262512207 7.746479 2.0 0.2000001
384 138.262512207 23.943663 -2.0 3.0379843e-07
383 138.262512207 23.943663 -1.3333334 3.0379843e-07
583 138.371566772 15.492958 -0.6666667 0.2000002
584 138.371566772 14.788733 0.0 0.2000002
591 138.371566772 18.309858 2.0 2.3231642e-07
590 138.371566772 12.676056 -0.6666667 0.20000017
79 138.371566772 9.859155 -1.3333334 0.20000012
80 138.371566772 9.859155 -2.0 0.20000012
87 138.371566772 7.0422535 -1.3333334 0.20000009
86 138.371566772 7.746479 -2.0 0.2000001
1376 138.372024536 43.661972 -2.0 0.10000055
1377 138.372024536 47.183098 2.0 0.2000006
1384 138.372024536 46.478874 0.0 0.2000006
1383 138.372024536 46.478874 0.6666667 0.2000006
872 138.372024536 30.28169 0.0 3.8421567e-07
873 138.372024536 30.28169 -0.6666667 3.8421567e-07
880 138.372024536 27.464788 0.0 3.4847466e-07
879 138.372024536 28.169014 -0.6666667 3.574099e-07
873 138.372024536 30.28169 -0.6666667 3.8421567e-07
874 138.372024536 29.577465 0.0 3.7528042e-07
881 138.372024536 27.464788 -0.6666667 3.4847466e-07
880 138.372024536 27.464788 0.0 3.4847466e-07
369 138.372024536 9.859155 1.3333334 0.20000012
370 138.372024536 9.859155 0.6666667 0.20000012
377 138.372024536 7.746479 2.0 0.2000001
376 138.372024536 8.450705 0.6666667 0.2000001
1087 138.374221802 35.21127 2.0 0.20000045
1088 138.374221802 35.21127 1.3333334 0.20000045
1095 138.374221802 33.80282 0.6666667 0.20000044
1094 138.374221802 33.80282 1.3333334 0.20000044
583 138.374221802 15.492958 -0.6666667 0.2000002
584 138.374221802 14.788733 0.0 0.2000002
591 138.374221802 18.309858 2.0 2.3231642e-07
590 138.374221802 12.676056 -0.6666667 0.20000017
1377 138.374984741 47.183098 2.0 0.2000006
1378 138.374984741 47.183098 1.3333334 0.2000006
1385 138.374984741 46.478874 -0.6666667 0.2000006
1384 138.374984741 46.478874 0.0 0.2000006
873 138.374984741 30.28169 -0.6666667 3.8421567e-07
874 138.374984741 29.577465 0.0 3.7528042e-07
881 138.374984741 27.464788 -0.6666667 3.4847466e-07
880 138.374984741 27.464788 0.0 3.4847466e-07
584 138.386138916 14.788733 0.0 0.2000002
585 138.386138916 14.788733 -0.6666667 0.2000002
592 138.386138916 18.309858 1.3333334 2.3231642e-07
591 138.386138916 18.309858 2.0 2.3231642e-07
80 138.386138916 9.859155 -2.0 0.20000012
81 138.386138916 9.154929 -1.3333334 0.20000012
88 138.386138916 7.0422535 -2.0 0.20000009
87 138.386138916 7.0422535 -1.3333334 0.20000009
865 138.387145996 33.09859 -0.6666667 4.1995665e-07
866 138.387145996 32.394367 0.0 4.110214e-07
873 138.387145996 30.28169 -0.6666667 3.8421567e-07
872 138.387145996 30.28169 0.0 3.8421567e-07
361 138.387145996 11.971831 0.6666667 0.20000015
362 138.387145996 11.267606 2.0 0.20000015
369 138.387145996 9.859155 1.3333334 0.20000012
368 138.387145996 9.859155 2.0 0.20000012
590 138.319564819 12.676056 -0.6666667 0.20000017
591 138.319564819 18.309858 2.0 2.3231642e-07
598 138.319564819 16.90141 1.3333334 2.1444595e-07
597 138.319564819 16.90141 2.0 2.1444595e-07
86 138.319564819 7.746479 -2.0 0.2000001
87 138.319564819 7.0422535 -1.3333334 0.20000009
94 138.319564819 4.9295774 -2.0 0.20000006
93 138.319564819 4.9295774 -1.3333334 0.20000006
1362 138.31892395 45.070423 -2.0 0.100000575
1363 138.31892395 44.366196 2.0 0.10000056
1370 138.31892395 43.661972 2.0 0.10000055
1369 138.31892395 44.366196 -2.0 0.10000056
858 138.31892395 35.21127 0.0 4.467624e-07
859 138.31892395 35.21127 -0.6666667 4.467624e-07
866 138.31892395 32.394367 0.0 4.110214e-07
865 138.31892395 33.09859 -0.6666667 4.1995665e-07
1094 138.317886353 33.80282 1.3333334 0.20000044
1095 138.317886353 33.80282 0.6666667 0.20000044
1102 138.317886353 32.394367 0.6666667 0.20000042
1101 138.317886353 32.394367 1.3333334 0.20000042
590 138.317886353 12.676056 -0.6666667 0.20000017
591 138.317886353 18.309858 2.0 2.3231642e-07
598 138.317886353 16.90141 1.3333334 2.1444595e-07
597 138.317886353 16.90141 2.0 2.1444595e-07
859 138.317108154 35.21127 -0.6666667 4.467624e-07
860 138.317108154 34.507042 0.0 4.3782714e-07
867 138.317108154 32.394367 -0.6666667 4.110214e-07
866 138.317108154 32.394367 0.0 4.110214e-07
355 138.317108154 7.0422535 1.3333334 0.10000009
356 138.317108154 7.0422535 0.6666667 0.10000009
363 138.317108154 11.267606 1.3333334 0.20000015
362 138.317108154 11.267606 2.0 0.20000015
591 138.309265137 18.309858 2.0 2.3231642e-07
592 138.309265137 18.309858 1.3333334 2.3231642e-07
599 138.309265137 16.90141 0.6666667 2.1444595e-07
598 138.309265137 16.90141 1.3333334 2.1444595e-07
87 138.309265137 7.0422535 -1.3333334 0.20000009
88 138.309265137 7.0422535 -2.0 0.20000009
95 138.309265137 4.2253523 -1.3333334 0.20000006
94 138.309265137 4.9295774 -2.0 0.20000006
1363 138.308441162 44.366196 2.0 0.10000056
1364 138.308441162 44.366196 1.3333334 0.10000056
1371 138.308441162 43.661972 1.3333334 0.10000055
1370 138.308441162 43.661972 2.0 0.10000055
859 138.308441162 35.21127 -0.6666667 4.467624e-07
860 138.308441162 34.507042 0.0 4.3782714e-07
867 138.308441162 32.394367 -0.6666667 4.110214e-07
866 138.308441162 32.394367 0.0 4.110214e-07
597 138.343307495 16.90141 2.0 2.1444595e-07
598 138.343307495 16.90141 1.3333334 2.1444595e-07
605 138.343307495 15.492958 0.6666667 1.9657546e-07
604 138.343307495 15.492958 1.3333334 1.9657546e-07
93 138.343307495 4.9295774 -1.3333334 0.20000006
94 138.343307495 4.9295774 -2.0 0.20000006
101 138.343307495 2.1126761 -1.3333334 0.20000003
100 138.343307495 2.8169014 -2.0 0.20000003
844 138.343734741 27.464788 -0.6666667 0.20000035
845 138.343734741 27.464788 -1.3333334 0.20000035
852 138.343734741 25.352112 -1.3333334 0.20000033
851 138.343734741 26.056337 -2.0 0.20000033
340 138.343734741 10.56338 1.3333334 0.100000136
341 138.343734741 10.56338 0.6666667 0.100000136
348 138.343734741 8.450705 2.0 0.100000106
347 138.343734741 9.154929 0.6666667 0.10000012
1101 138.34413147 32.394367 1.3333334 0.20000042
1102 138.34413147 32.394367 0.6666667 0.20000042
1109 138.34413147 42.957745 0.0 5.450501e-07
1108 138.34413147 30.985916 0.6666667 0.20000039
597 138.34413147 16.90141 2.0 2.1444595e-07
598 138.34413147 16.90141 1.3333334 2.1444595e-07
605 138.34413147 15.492958 0.6666667 1.9657546e-07
604 138.34413147 15.492958 1.3333334 1.9657546e-07
1348 138.344772339 46.478874 -2.0 0.10000059
1349 138.344772339 45.774647 2.0 0.10000058
1356 138.344772339 45.070423 2.0 0.100000575
1355 138.344772339 45.774647 -2.0 0.10000058
844 138.344772339 27.464788 -0.6666667 0.20000035
845 138.344772339 27.464788 -1.3333334 0.20000035
852 138.344772339 25.352112 -1.3333334 0.20000033
851 138.344772339 26.056337 -2.0 0.20000033
598 138.35017395 16.90141 1.3333334 2.1444595e-07
599 138.35017395 16.90141 0.6666667 2.1444595e-07
606 138.35017395 14.788733 2.0 1.876402e-07
605 138.35017395 15.492958 0.6666667 1.9657546e-07
94 138.35017395 4.9295774 -2.0 0.20000006
95 138.35017395 4.2253523 -1.3333334 0.20000006
102 138.35017395 2.1126761 -2.0 0.20000003
101 138.35017395 2.1126761 -1.3333334 0.20000003
845 138.350997925 27.464788 -1.3333334 0.20000035
846 138.350997925 27.464788 -2.0 0.20000035
853 138.350997925 25.352112 -2.0 0.20000033
852 138.350997925 25.352112 -1.3333334 0.20000033
341 138.350997925 10.56338 0.6666667 0.100000136
342 138.350997925 9.859155 2.0 0.10000013
349 138.350997925 8.450705 1.3333334 0.100000106
348 138.350997925 8.450705 2.0 0.100000106
604 138.341201782 15.492958 1.3333334 1.9657546e-07
605 138.341201782 15.492958 0.6666667 1.9657546e-07
612 138.341201782 14.084507 0.6666667 1.7870495e-07
611 138.341201782 14.084507 1.3333334 1.7870495e-07
100 138.341201782 2.8169014 -2.0 0.20000003
101 138.341201782 2.1126761 -1.3333334 0.20000003
108 138.341201782 -2.5376103e-09 -2.0 0.2
107 138.341201782 -2.5376103e-09 -1.3333334 0.2
838 138.340698242 29.577465 -1.3333334 0.20000038
839 138.340698242 29.577465 -2.0 0.20000038
846 138.340698242 27.464788 -2.0 0.20000035
845 138.340698242 27.464788 -1.3333334 0.20000035
334 138.340698242 11.971831 1.3333334 0.10000015
335 138.340698242 11.971831 0.6666667 0.10000015
342 138.340698242 9.859155 2.0 0.10000013
341 138.340698242 10.56338 0.6666667 0.100000136
1108 138.341033936 30.985916 0.6666667 0.20000039
1109 138.341033936 42.957745 0.0 5.450501e-07
1116 138.341033936 42.25352 -2.0 5.3611484e-07
1115 138.341033936 42.25352 -1.3333334 5.3611484e-07
604 138.341033936 15.492958 1.3333334 1.9657546e-07
605 138.341033936 15.492958 0.6666667 1.9657546e-07
612 138.341033936 14.084507 0.6666667 1.7870495e-07
611 138.341033936 14.084507 1.3333334 1.7870495e-07
1342 138.340393066 46.478874 2.0 0.10000059
1343 138.340393066 46.478874 1.3333334 0.10000059
1350 138.340393066 45.774647 1.3333334 0.10000058
1349 138.340393066 45.774647 2.0 0.10000058
838 138.340393066 29.577465 -1.3333334 0.20000038
839 138.340393066 29.577465 -2.0 0.20000038
846 138.340393066 27.464788 -2.0 0.20000035
845 138.340393066 27.464788 -1.3333334 0.20000035
605 138.336898804 15.492958 0.6666667 1.9657546e-07
606 138.336898804 14.788733 2.0 1.876402e-07
613 138.336898804 13.380281 2.0 1.697697e-07
612 138.336898804 14.084507 0.6666667 1.7870495e-07
101 138.336898804 2.1126761 -1.3333334 0.20000003
102 138.336898804 2.1126761 -2.0 0.20000003
109 138.336898804 11.971831 0.0 1.5189921e-07
108 138.336898804 -2.5376103e-09 -2.0 0.2
830 138.336212158 32.394367 -1.3333334 0.20000042
831 138.336212158 32.394367 -2.0 0.20000042
838 138.336212158 29.577465 -1.3333334 0.20000038
837 138.336212158 30.28169 -2.0 0.20000039
326 138.336212158 7.746479 0.6666667 9.828773e-08
327 138.336212158 7.0422535 2.0 8.9352476e-08
334 138.336212158 11.971831 1.3333334 0.10000015
333 138.336212158 11.971831 2.0 0.10000015
611 138.326782227 14.084507 1.3333334 1.7870495e-07
612 138.326782227 14.084507 0.6666667 1.7870495e-07
619 138.326782227 18.309858 2.0 0.10000023
618 138.326782227 12.676056 0.6666667 1.6083446e-07
107 138.326782227 -2.5376103e-09 -1.3333334 0.2
108 138.326782227 -2.5376103e-09 -2.0 0.2
115 138.326782227 9.859155 0.0 1.2509346e-07
114 138.326782227 10.56338 -0.6666667 1.3402871e-07
823 138.327148438 35.21127 -2.0 0.20000045
824 138.327148438 34.507042 -1.3333334 0.20000044
831 138.327148438 32.394367 -2.0 0.20000042
830 138.327148438 32.394367 -1.3333334 0.20000042
319 138.327148438 9.154929 1.3333334 1.1615821e-07
320 138.327148438 9.154929 0.6666667 1.1615821e-07
327 138.327148438 7.0422535 2.0 8.9352476e-08
326 138.327148438 7.746479 0.6666667 9.828773e-08
1115 138.326416016 42.25352 -1.3333334 5.3611484e-07
1116 138.326416016 42.25352 -2.0 5.3611484e-07
1123 138.326416016 40.84507 -1.3333334 5.1824435e-07
1122 138.326416016 40.84507 -0.6666667 5.1824435e-07
611 138.326416016 14.084507 1.3333334 1.7870495e-07
612 138.326416016 14.084507 0.6666667 1.7870495e-07
619 138.326416016 18.309858 2.0 0.10000023
618 138.326416016 12.676056 0.6666667 1.6083446e-07
1327 138.326950073 44.366196 0.0 5.629206e-07
1328 138.326950073 44.366196 -0.6666667 5.629206e-07
1335 138.326950073 43.661972 -0.6666667 5.539854e-07
1334 138.326950073 43.661972 0.0 5.539854e-07
823 138.326950073 35.21127 -2.0 0.20000045
824 138.326950073 34.507042 -1.3333334 0.20000044
831 138.326950073 32.394367 -2.0 0.20000042
830 138.326950073 32.394367 -1.3333334 0.20000042
612 138.329025269 14.084507 0.6666667 1.7870495e-07
613 138.329025269 13.380281 2.0 1.697697e-07
620 138.329025269 18.309858 1.3333334 0.10000023
619 138.329025269 18.309858 2.0 0.10000023
108 138.329025269 -2.5376103e-09 -2.0 0.2
109 138.329025269 11.971831 0.0 1.5189921e-07
116 138.329025269 9.859155 -0.6666667 1.2509346e-07
115 138.329025269 9.859155 0.0 1.2509346e-07
824 138.329711914 34.507042 -1.3333334 0.20000044
825 138.329711914 34.507042 -2.0 0.20000044
832 138.329711914 31.690142 -1.3333334 0.2000004
831 138.329711914 32.394367 -2.0 0.20000042
320 138.329711914 9.154929 0.6666667 1.1615821e-07
321 138.329711914 8.450705 2.0 1.0722298e-07
328 138.329711914 7.0422535 1.3333334 8.9352476e-08
327 138.329711914 7.0422535 2.0 8.9352476e-08
1112 138.364456177 42.957745 -2.0 5.450501e-07
1113 138.364456177 42.25352 0.0 5.3611484e-07
1120 138.364456177 41.549297 -2.0 5.271796e-07
1119 138.364456177 41.549297 -1.3333334 5.271796e-07
608 138.364456177 14.788733 0.6666667 1.876402e-07
609 138.364456177 14.788733 0.0 1.876402e-07
616 138.364456177 12.676056 2.0 1.6083446e-07
615 138.364456177 13.380281 0.6666667 1.697697e-07
1105 138.310638428 31.690142 0.6666667 0.2000004
1106 138.310638428 30.985916 2.0 0.20000039
1113 138.310638428 42.25352 0.0 5.3611484e-07
1112 138.310638428 42.957745 -2.0 5.450501e-07
601 138.310638428 16.197184 1.3333334 2.055107e-07
602 138.310638428 16.197184 0.6666667 2.055107e-07
609 138.310638428 14.788733 0.0 1.876402e-07
608 138.310638428 14.788733 0.6666667 1.876402e-07
1315 138.310836792 45.774647 -1.3333334 5.807911e-07
1316 138.310836792 45.774647 -2.0 5.807911e-07
1323 138.310836792 45.070423 -2.0 5.718559e-07
1322 138.310836792 45.070423 -1.3333334 5.718559e-07
811 138.310836792 26.760563 -0.6666667 0.100000344
812 138.310836792 26.760563 -1.3333334 0.100000344
819 138.310836792 36.619717 -2.0 0.20000046
818 138.310836792 36.619717 -1.3333334 0.20000046
818 138.310836792 36.619717 -1.3333334 0.20000046
819 138.310836792 36.619717 -2.0 0.20000046
826 138.310836792 33.80282 -1.3333334 0.20000044
825 138.310836792 34.507042 -2.0 0.20000044
314 138.310836792 10.56338 0.6666667 1.3402871e-07
315 138.310836792 9.859155 2.0 1.2509346e-07
322 138.310836792 8.450705 1.3333334 1.0722298e-07
321 138.310836792 8.450705 2.0 1.0722298e-07
613 138.366073608 13.380281 2.0 1.697697e-07
614 138.366073608 13.380281 1.3333334 1.697697e-07
621 138.366073608 18.309858 0.6666667 0.10000023
620 138.366073608 18.309858 1.3333334 0.10000023
109 138.366073608 11.971831 0.0 1.5189921e-07
110 138.366073608 11.971831 -0.6666667 1.5189921e-07
117 138.366073608 9.154929 0.0 1.1615821e-07
116 138.366073608 9.859155 -0.6666667 1.2509346e-07
606 138.309036255 14.788733 2.0 1.876402e-07
607 138.309036255 14.788733 1.3333334 1.876402e-07
614 138.309036255 13.380281 1.3333334 1.697697e-07
613 138.309036255 13.380281 2.0 1.697697e-07
102 138.309036255 2.1126761 -2.0 0.20000003
103 138.309036255 1.4084507 -1.3333334 0.20000002
110 138.309036255 11.971831 -0.6666667 1.5189921e-07
109 138.309036255 11.971831 0.0 1.5189921e-07
1322 138.309280396 45.070423 -1.3333334 5.718559e-07
1323 138.309280396 45.070423 -2.0 5.718559e-07
1330 138.309280396 44.366196 -2.0 5.629206e-07
1329 138.309280396 44.366196 -1.3333334 5.629206e-07
818 138.309280396 36.619717 -1.3333334 0.20000046
819 138.309280396 36.619717 -2.0 0.20000046
826 138.309280396 33.80282 -1.3333334 0.20000044
825 138.309280396 34.507042 -2.0 0.20000044
1098 138.364105225 33.09859 0.6666667 0.20000042
1099 138.364105225 33.09859 0.0 0.20000042
1106 138.364105225 30.985916 2.0 0.20000039
1105 138.364105225 31.690142 0.6666667 0.2000004
594 138.364105225 17.605635 2.0 2.233812e-07
595 138.364105225 17.605635 1.3333334 2.233812e-07
602 138.364105225 16.197184 0.6666667 2.055107e-07
601 138.364105225 16.197184 1.3333334 2.055107e-07
797 138.363845825 31.690142 -2.0 0.100000404
798 138.363845825 30.985916 -1.3333334 0.1000004
805 138.363845825 28.87324 -2.0 0.10000037
804 138.363845825 28.87324 -1.3333334 0.10000037
293 138.363845825 2.8169014 0.6666667 0.20000003
294 138.363845825 2.1126761 2.0 0.20000003
301 138.363845825 0.70422536 1.3333334 0.20000002
300 138.363845825 0.70422536 2.0 0.20000002
599 138.36567688 16.90141 0.6666667 2.1444595e-07
600 138.36567688 16.197184 2.0 2.055107e-07
607 138.36567688 14.788733 1.3333334 1.876402e-07
606 138.36567688 14.788733 2.0 1.876402e-07
95 138.36567688 4.2253523 -1.3333334 0.20000006
96 138.36567688 4.2253523 -2.0 0.20000006
103 138.36567688 1.4084507 -1.3333334 0.20000002
102 138.36567688 2.1126761 -2.0 0.20000003
1301 138.365386963 37.323944 1.3333334 0.20000048
1302 138.365386963 37.323944 0.6666667 0.20000048
1309 138.365386963 46.478874 -2.0 5.8972637e-07
1308 138.365386963 46.478874 -1.3333334 5.8972637e-07
797 138.365386963 31.690142 -2.0 0.100000404
798 138.365386963 30.985916 -1.3333334 0.1000004
805 138.365386963 28.87324 -2.0 0.10000037
804 138.365386963 28.87324 -1.3333334 0.10000037
1110 138.307785034 42.957745 -0.6666667 5.450501e-07
1111 138.307785034 42.957745 -1.3333334 5.450501e-07
1118 138.307785034 41.549297 -0.6666667 5.271796e-07
1117 138.307785034 41.549297 0.0 5.271796e-07
606 138.307785034 14.788733 2.0 1.876402e-07
607 138.307785034 14.788733 1.3333334 1.876402e-07
614 138.307785034 13.380281 1.3333334 1.697697e-07
613 138.307785034 13.380281 2.0 1.697697e-07
825 138.30809021 34.507042 -2.0 0.20000044
826 138.30809021 33.80282 -1.3333334 0.20000044
833 138.30809021 31.690142 -2.0 0.2000004
832 138.30809021 31.690142 -1.3333334 0.2000004
321 138.30809021 8.450705 2.0 1.0722298e-07
322 138.30809021 8.450705 1.3333334 1.0722298e-07
329 138.30809021 7.0422535 0.6666667 8.9352476e-08
328 138.30809021 7.0422535 1.3333334 8.9352476e-08
1103 138.366836548 31.690142 2.0 0.2000004
1104 138.366836548 31.690142 1.3333334 0.2000004
1111 138.366836548 42.957745 -1.3333334 5.450501e-07
1110 138.366836548 42.957745 -0.6666667 5.450501e-07
599 138.366836548 16.90141 0.6666667 2.1444595e-07
600 138.366836548 16.197184 2.0 2.055107e-07
607 138.366836548 14.788733 1.3333334 1.876402e-07
606 138.366836548 14.788733 2.0 1.876402e-07
804 138.366500854 28.87324 -1.3333334 0.10000037
805 138.366500854 28.87324 -2.0 0.10000037
812 138.366500854 26.760563 -1.3333334 0.100000344
811 138.366500854 26.760563 -0.6666667 0.100000344
300 138.366500854 0.70422536 2.0 0.20000002
301 138.366500854 0.70422536 1.3333334 0.20000002
308 138.366500854 11.971831 0.6666667 1.5189921e-07
307 138.366500854 11.971831 1.3333334 1.5189921e-07
1091 138.311325073 34.507042 1.3333334 0.20000044
1092 138.311325073 34.507042 0.6666667 0.20000044
1099 138.311325073 33.09859 0.0 0.20000042
1098 138.311325073 33.09859 0.6666667 0.20000042
587 138.311325073 14.084507 -0.6666667 0.20000018
588 138.311325073 13.380281 0.0 0.20000017
595 138.311325073 17.605635 1.3333334 2.233812e-07
594 138.311325073 17.605635 2.0 2.233812e-07
776 138.311569214 26.056337 -1.3333334 3.3060417e-07
777 138.311569214 26.056337 -2.0 3.3060417e-07
784 138.311569214 35.915493 -1.3333334 0.100000456
783 138.311569214 36.619717 -2.0 0.10000046
272 138.311569214 0.70422536 0.6666667 0.10000001
273 138.311569214 -1.2688052e-09 2.0 0.1
280 138.311569214 5.633803 1.3333334 0.20000008
279 138.311569214 5.633803 2.0 0.20000008
592 138.309783936 18.309858 1.3333334 2.3231642e-07
593 138.309783936 18.309858 0.6666667 2.3231642e-07
600 138.309783936 16.197184 2.0 2.055107e-07
599 138.309783936 16.90141 0.6666667 2.1444595e-07
88 138.309783936 7.0422535 -2.0 0.20000009
89 138.309783936 6.338028 -1.3333334 0.20000008
96 138.309783936 4.2253523 -2.0 0.20000006
95 138.309783936 4.2253523 -1.3333334 0.20000006
1280 138.310089111 42.25352 1.3333334 0.20000054
1281 138.310089111 42.25352 0.6666667 0.20000054
1288 138.310089111 40.140846 2.0 0.20000051
1287 138.310089111 40.84507 0.6666667 0.20000052
776 138.310089111 26.056337 -1.3333334 3.3060417e-07
777 138.310089111 26.056337 -2.0 3.3060417e-07
784 138.310089111 35.915493 -1.3333334 0.100000456
783 138.310089111 36.619717 -2.0 0.10000046
1096 138.308776855 33.09859 2.0 0.20000042
1097 138.308776855 33.09859 1.3333334 0.20000042
1104 138.308776855 31.690142 1.3333334 0.2000004
1103 138.308776855 31.690142 2.0 0.2000004
592 138.308776855 18.309858 1.3333334 2.3231642e-07
593 138.308776855 18.309858 0.6666667 2.3231642e-07
600 138.308776855 16.197184 2.0 2.055107e-07
599 138.308776855 16.90141 0.6666667 2.1444595e-07
783 138.309173584 36.619717 -2.0 0.10000046
784 138.309173584 35.915493 -1.3333334 0.100000456
791 138.309173584 33.80282 -2.0 0.100000426
790 138.309173584 33.80282 -1.3333334 0.100000426
279 138.309173584 5.633803 2.0 0.20000008
280 138.309173584 5.633803 1.3333334 0.20000008
287 138.309173584 4.2253523 0.6666667 0.20000006
286 138.309173584 4.2253523 1.3333334 0.20000006
1083 138.36289978 36.619717 0.6666667 0.20000046
1084 138.36289978 35.915493 2.0 0.20000046
1091 138.36289978 34.507042 1.3333334 0.20000044
1090 138.36289978 34.507042 2.0 0.20000044
579 138.36289978 16.90141 -0.6666667 0.20000021
580 138.36289978 16.197184 0.0 0.20000021
587 138.36289978 14.084507 -0.6666667 0.20000018
586 138.36289978 14.084507 0.0 0.20000018
1084 138.36289978 35.915493 2.0 0.20000046
1085 138.36289978 35.915493 1.3333334 0.20000046
1092 138.36289978 34.507042 0.6666667 0.20000044
1091 138.36289978 34.507042 1.3333334 0.20000044
580 138.36289978 16.197184 0.0 0.20000021
581 138.36289978 16.197184 -0.6666667 0.20000021
588 138.36289978 13.380281 0.0 0.20000017
587 138.36289978 14.084507 -0.6666667 0.20000018
1286 138.362625122 40.84507 1.3333334 0.20000052
1287 138.362625122 40.84507 0.6666667 0.20000052
1294 138.362625122 38.732395 2.0 0.2000005
1293 138.362625122 39.43662 0.6666667 0.20000051
782 138.362625122 36.619717 -1.3333334 0.10000046
783 138.362625122 36.619717 -2.0 0.10000046
790 138.362625122 33.80282 -1.3333334 0.100000426
789 138.362625122 34.507042 -2.0 0.10000044
585 138.364379883 14.788733 -0.6666667 0.2000002
586 138.364379883 14.084507 0.0 0.20000018
593 138.364379883 18.309858 0.6666667 2.3231642e-07
592 138.364379883 18.309858 1.3333334 2.3231642e-07
81 138.364379883 9.154929 -1.3333334 0.20000012
82 138.364379883 9.154929 -2.0 0.20000012
89 138.364379883 6.338028 -1.3333334 0.20000008
88 138.364379883 7.0422535 -2.0 0.20000009
1279 138.364013672 42.25352 2.0 0.20000054
1280 138.364013672 42.25352 1.3333334 0.20000054
1287 138.364013672 40.84507 0.6666667 0.20000052
1286 138.364013672 40.84507 1.3333334 0.20000052
775 138.364013672 26.760563 -2.0 3.395394e-07
776 138.364013672 26.056337 -1.3333334 3.3060417e-07
783 138.364013672 36.619717 -2.0 0.10000046
782 138.364013672 36.619717 -1.3333334 0.10000046
1089 138.365127563 35.21127 0.6666667 0.20000045
1090 138.365127563 34.507042 2.0 0.20000044
1097 138.365127563 33.09859 1.3333334 0.20000042
1096 138.365127563 33.09859 2.0 0.20000042
585 138.365127563 14.788733 -0.6666667 0.2000002
586 138.365127563 14.084507 0.0 0.20000018
593 138.365127563 18.309858 0.6666667 2.3231642e-07
592 138.365127563 18.309858 1.3333334 2.3231642e-07
1272 138.364730835 38.028168 0.6666667 0.100000486
1273 138.364730835 37.323944 2.0 0.10000047
1280 138.364730835 42.25352 1.3333334 0.20000054
1279 138.364730835 42.25352 2.0 0.20000054
768 138.364730835 28.87324 -1.3333334 3.6634515e-07
769 138.364730835 28.87324 -2.0 3.6634515e-07
776 138.364730835 26.056337 -1.3333334 3.3060417e-07
775 138.364730835 26.760563 -2.0 3.395394e-07
639 138.313293457 14.084507 0.6666667 0.10000018
640 138.313293457 13.380281 2.0 0.10000017
647 138.313293457 18.309858 0.6666667 0.20000024
646 138.313293457 18.309858 1.3333334 0.20000024
135 138.313293457 2.8169014 0.0 3.5740992e-08
136 138.313293457 2.8169014 -0.6666667 3.5740992e-08
143 138.313293457 0.0 0.0 0.0
142 138.313293457 0.70422536 -0.6666667 8.935248e-09
774 138.313537598 26.760563 -1.3333334 3.395394e-07
775 138.313537598 26.760563 -2.0 3.395394e-07
782 138.313537598 36.619717 -1.3333334 0.10000046
781 138.313537598 24.647888 -2.0 3.1273368e-07
270 138.313537598 0.70422536 2.0 0.10000001
271 138.313537598 0.70422536 1.3333334 0.10000001
278 138.313537598 6.338028 0.6666667 0.20000008
277 138.313537598 6.338028 1.3333334 0.20000008
1278 138.313537598 42.957745 0.6666667 0.20000055
1279 138.313537598 42.25352 2.0 0.20000054
1286 138.313537598 40.84507 1.3333334 0.20000052
1285 138.313537598 40.84507 2.0 0.20000052
774 138.313537598 26.760563 -1.3333334 3.395394e-07
775 138.313537598 26.760563 -2.0 3.395394e-07
782 138.313537598 36.619717 -1.3333334 0.10000046
781 138.313537598 24.647888 -2.0 3.1273368e-07
640 138.311889648 13.380281 2.0 0.10000017
641 138.311889648 13.380281 1.3333334 0.10000017
648 138.311889648 17.605635 2.0 0.20000023
647 138.311889648 18.309858 0.6666667 0.20000024
136 138.311889648 2.8169014 -0.6666667 3.5740992e-08
137 138.311889648 2.1126761 0.0 2.6805743e-08
144 138.311889648 0.0 -0.6666667 0.0
143 138.311889648 0.0 0.0 0.0
1271 138.312271118 38.028168 1.3333334 0.100000486
1272 138.312271118 38.028168 0.6666667 0.100000486
1279 138.312271118 42.25352 2.0 0.20000054
1278 138.312271118 42.957745 0.6666667 0.20000055
767 138.312271118 29.577465 -2.0 3.7528042e-07
768 138.312271118 28.87324 -1.3333334 3.6634515e-07
775 138.312271118 26.760563 -2.0 3.395394e-07
774 138.312271118 26.760563 -1.3333334 3.395394e-07
1082 138.311447144 36.619717 1.3333334 0.20000046
1083 138.311447144 36.619717 0.6666667 0.20000046
1090 138.311447144 34.507042 2.0 0.20000044
1089 138.311447144 35.21127 0.6666667 0.20000045
578 138.311447144 16.90141 0.0 0.20000021
579 138.311447144 16.90141 -0.6666667 0.20000021
586 138.311447144 14.084507 0.0 0.20000018
585 138.311447144 14.788733 -0.6666667 0.2000002
1264 138.311920166 39.43662 2.0 0.1000005
1265 138.311920166 39.43662 1.3333334 0.1000005
1272 138.311920166 38.028168 0.6666667 0.100000486
1271 138.311920166 38.028168 1.3333334 0.100000486
760 138.311920166 31.690142 -1.3333334 4.0208616e-07
761 138.311920166 31.690142 -2.0 4.0208616e-07
768 138.311920166 28.87324 -1.3333334 3.6634515e-07
767 138.311920166 29.577465 -2.0 3.7528042e-07
638 138.359893799 14.084507 1.3333334 0.10000018
639 138.359893799 14.084507 0.6666667 0.10000018
646 138.359893799 18.309858 1.3333334 0.20000024
645 138.359893799 18.309858 2.0 0.20000024
134 138.359893799 3.5211267 -0.6666667 4.4676238e-08
135 138.359893799 2.8169014 0.0 3.5740992e-08
142 138.359893799 0.70422536 -0.6666667 8.935248e-09
141 138.359893799 0.70422536 0.0 8.935248e-09
788 138.359573364 34.507042 -1.3333334 0.10000044
789 138.359573364 34.507042 -2.0 0.10000044
796 138.359573364 31.690142 -1.3333334 0.100000404
795 138.359573364 32.394367 -2.0 0.10000041
284 138.359573364 4.9295774 0.6666667 0.20000006
285 138.359573364 4.2253523 2.0 0.20000006
292 138.359573364 2.8169014 1.3333334 0.20000003
291 138.359573364 2.8169014 2.0 0.20000003
632 138.361129761 15.492958 1.3333334 0.100000195
633 138.361129761 15.492958 0.6666667 0.100000195
640 138.361129761 13.380281 2.0 0.10000017
639 138.361129761 14.084507 0.6666667 0.10000018
128 138.361129761 5.633803 -0.6666667 7.1481985e-08
129 138.361129761 4.9295774 0.0 6.254673e-08
136 138.361129761 2.8169014 -0.6666667 3.5740992e-08
135 138.361129761 2.8169014 0.0 3.5740992e-08
789 138.360702515 34.507042 -2.0 0.10000044
790 138.360702515 33.80282 -1.3333334 0.100000426
797 138.360702515 31.690142 -2.0 0.100000404
796 138.360702515 31.690142 -1.3333334 0.100000404
285 138.360702515 4.2253523 2.0 0.20000006
286 138.360702515 4.2253523 1.3333334 0.20000006
293 138.360702515 2.8169014 0.6666667 0.20000003
292 138.360702515 2.8169014 1.3333334 0.20000003
1136 138.361099243 38.732395 -2.0 4.9143864e-07
1137 138.361099243 38.028168 0.0 4.8250337e-07
1144 138.361099243 37.323944 -2.0 4.7356812e-07
1143 138.361099243 37.323944 -1.3333334 4.7356812e-07
632 138.361099243 15.492958 1.3333334 0.100000195
633 138.361099243 15.492958 0.6666667 0.100000195
640 138.361099243 13.380281 2.0 0.10000017
639 138.361099243 14.084507 0.6666667 0.10000018
1293 138.360610962 39.43662 0.6666667 0.20000051
1294 138.360610962 38.732395 2.0 0.2000005
1301 138.360610962 37.323944 1.3333334 0.20000048
1300 138.360610962 37.323944 2.0 0.20000048
789 138.360610962 34.507042 -2.0 0.10000044
790 138.360610962 33.80282 -1.3333334 0.100000426
797 138.360610962 31.690142 -2.0 0.100000404
796 138.360610962 31.690142 -1.3333334 0.100000404
625 138.317764282 16.90141 2.0 0.10000022
626 138.317764282 16.90141 1.3333334 0.10000022
633 138.317764282 15.492958 0.6666667 0.100000195
632 138.317764282 15.492958 1.3333334 0.100000195
121 138.317764282 7.746479 0.0 9.828773e-08
122 138.317764282 7.746479 -0.6666667 9.828773e-08
129 138.317764282 4.9295774 0.0 6.254673e-08
128 138.317764282 5.633803 -0.6666667 7.1481985e-08
1306 138.318084717 46.478874 0.0 5.8972637e-07
1307 138.318084717 46.478874 -0.6666667 5.8972637e-07
1314 138.318084717 45.774647 -0.6666667 5.807911e-07
1313 138.318084717 45.774647 0.0 5.807911e-07
802 138.318084717 29.577465 -1.3333334 0.100000374
803 138.318084717 29.577465 -2.0 0.100000374
810 138.318084717 27.464788 -2.0 0.10000035
809 138.318084717 27.464788 -1.3333334 0.10000035
1129 138.316711426 39.43662 0.0 5.0037386e-07
1130 138.316711426 39.43662 -0.6666667 5.0037386e-07
1137 138.316711426 38.028168 0.0 4.8250337e-07
1136 138.316711426 38.732395 -2.0 4.9143864e-07
625 138.316711426 16.90141 2.0 0.10000022
626 138.316711426 16.90141 1.3333334 0.10000022
633 138.316711426 15.492958 0.6666667 0.100000195
632 138.316711426 15.492958 1.3333334 0.100000195
803 138.317169189 29.577465 -2.0 0.100000374
804 138.317169189 28.87324 -1.3333334 0.10000037
811 138.317169189 26.760563 -0.6666667 0.100000344
810 138.317169189 27.464788 -2.0 0.10000035
299 138.317169189 1.4084507 0.6666667 0.20000002
300 138.317169189 0.70422536 2.0 0.20000002
307 138.317169189 11.971831 1.3333334 1.5189921e-07
306 138.317169189 11.971831 2.0 1.5189921e-07
626 138.317382812 16.90141 1.3333334 0.10000022
627 138.317382812 16.90141 0.6666667 0.10000022
634 138.317382812 14.788733 2.0 0.10000019
633 138.317382812 15.492958 0.6666667 0.100000195
122 138.317382812 7.746479 -0.6666667 9.828773e-08
123 138.317382812 7.0422535 0.0 8.9352476e-08
130 138.317382812 4.9295774 -0.6666667 6.254673e-08
129 138.317382812 4.9295774 0.0 6.254673e-08
1307 138.317932129 46.478874 -0.6666667 5.8972637e-07
1308 138.317932129 46.478874 -1.3333334 5.8972637e-07
1315 138.317932129 45.774647 -1.3333334 5.807911e-07
1314 138.317932129 45.774647 -0.6666667 5.807911e-07
803 138.317932129 29.577465 -2.0 0.100000374
804 138.317932129 28.87324 -1.3333334 0.10000037
811 138.317932129 26.760563 -0.6666667 0.100000344
810 138.317932129 27.464788 -2.0 0.10000035
1121 138.353469849 40.84507 0.0 5.1824435e-07
1122 138.353469849 40.84507 -0.6666667 5.1824435e-07
1129 138.353469849 39.43662 0.0 5.0037386e-07
1128 138.353469849 40.140846 -2.0 5.0930913e-07
617 138.353469849 12.676056 1.3333334 1.6083446e-07
618 138.353469849 12.676056 0.6666667 1.6083446e-07
625 138.353469849 16.90141 2.0 0.10000022
624 138.353469849 17.605635 0.6666667 0.100000225
618 138.353469849 12.676056 0.6666667 1.6083446e-07
619 138.353469849 18.309858 2.0 0.10000023
626 138.353469849 16.90141 1.3333334 0.10000022
625 138.353469849 16.90141 2.0 0.10000022
114 138.353469849 10.56338 -0.6666667 1.3402871e-07
115 138.353469849 9.859155 0.0 1.2509346e-07
122 138.353469849 7.746479 -0.6666667 9.828773e-08
121 138.353469849 7.746479 0.0 9.828773e-08
1321 138.35307312 45.070423 -0.6666667 5.718559e-07
1322 138.35307312 45.070423 -1.3333334 5.718559e-07
1329 138.35307312 44.366196 -1.3333334 5.629206e-07
1328 138.35307312 44.366196 -0.6666667 5.629206e-07
817 138.35307312 25.352112 -2.0 0.10000032
818 138.35307312 36.619717 -1.3333334 0.20000046
825 138.35307312 34.507042 -2.0 0.20000044
824 138.35307312 34.507042 -1.3333334 0.20000044
1122 138.354217529 40.84507 -0.6666667 5.1824435e-07
1123 138.354217529 40.84507 -1.3333334 5.1824435e-07
1130 138.354217529 39.43662 -0.6666667 5.0037386e-07
1129 138.354217529 39.43662 0.0 5.0037386e-07
618 138.354217529 12.676056 0.6666667 1.6083446e-07
619 138.354217529 18.309858 2.0 0.10000023
626 138.354217529 16.90141 1.3333334 0.10000022
625 138.354217529 16.90141 2.0 0.10000022
809 138.35369873 27.464788 -1.3333334 0.10000035
810 138.35369873 27.464788 -2.0 0.10000035
817 138.35369873 25.352112 -2.0 0.10000032
816 138.35369873 25.352112 -1.3333334 0.10000032
305 138.35369873 -2.5376103e-09 0.6666667 0.2
306 138.35369873 11.971831 2.0 1.5189921e-07
313 138.35369873 10.56338 1.3333334 1.3402871e-07
312 138.35369873 10.56338 2.0 1.3402871e-07
619 138.35269165 18.309858 2.0 0.10000023
620 138.35269165 18.309858 1.3333334 0.10000023
627 138.35269165 16.90141 0.6666667 0.10000022
626 138.35269165 16.90141 1.3333334 0.10000022
115 138.35269165 9.859155 0.0 1.2509346e-07
116 138.35269165 9.859155 -0.6666667 1.2509346e-07
123 138.35269165 7.0422535 0.0 8.9352476e-08
122 138.35269165 7.746479 -0.6666667 9.828773e-08
1313 138.352127075 45.774647 0.0 5.807911e-07
1314 138.352127075 45.774647 -0.6666667 5.807911e-07
1321 138.352127075 45.070423 -0.6666667 5.718559e-07
1320 138.352127075 45.070423 0.0 5.718559e-07
809 138.352127075 27.464788 -1.3333334 0.10000035
810 138.352127075 27.464788 -2.0 0.10000035
817 138.352127075 25.352112 -2.0 0.10000032
816 138.352127075 25.352112 -1.3333334 0.10000032
614 138.307540894 13.380281 1.3333334 1.697697e-07
615 138.307540894 13.380281 0.6666667 1.697697e-07
622 138.307540894 17.605635 2.0 0.100000225
621 138.307540894 18.309858 0.6666667 0.10000023
110 138.307540894 11.971831 -0.6666667 1.5189921e-07
111 138.307540894 11.267606 0.0 1.4296397e-07
118 138.307540894 9.154929 -0.6666667 1.1615821e-07
117 138.307540894 9.154929 0.0 1.1615821e-07
1329 138.367095947 44.366196 -1.3333334 5.629206e-07
1330 138.367095947 44.366196 -2.0 5.629206e-07
1337 138.367095947 43.661972 -2.0 5.539854e-07
1336 138.367095947 43.661972 -1.3333334 5.539854e-07
825 138.367095947 34.507042 -2.0 0.20000044
826 138.367095947 33.80282 -1.3333334 0.20000044
833 138.367095947 31.690142 -2.0 0.2000004
832 138.367095947 31.690142 -1.3333334 0.2000004
1350 138.307815552 45.774647 1.3333334 0.10000058
1351 138.307815552 45.774647 0.6666667 0.10000058
1358 138.307815552 45.070423 0.6666667 0.100000575
1357 138.307815552 45.070423 1.3333334 0.100000575
846 138.307815552 27.464788 -2.0 0.20000035
847 138.307815552 26.760563 -0.6666667 0.20000035
854 138.307815552 36.619717 0.0 4.6463285e-07
853 138.307815552 25.352112 -2.0 0.20000033
621 138.367355347 18.309858 0.6666667 0.10000023
622 138.367355347 17.605635 2.0 0.100000225
629 138.367355347 16.197184 1.3333334 0.10000021
628 138.367355347 16.197184 2.0 0.10000021
117 138.367355347 9.154929 0.0 1.1615821e-07
118 138.367355347 9.154929 -0.6666667 1.1615821e-07
125 138.367355347 6.338028 0.0 8.041723e-08
124 138.367355347 7.0422535 -0.6666667 8.9352476e-08
1371 138.367111206 43.661972 1.3333334 0.10000055
1372 138.367111206 43.661972 0.6666667 0.10000055
1379 138.367111206 47.183098 0.6666667 0.2000006
1378 138.367111206 47.183098 1.3333334 0.2000006
867 138.367111206 32.394367 -0.6666667 4.110214e-07
868 138.367111206 31.690142 0.0 4.0208616e-07
875 138.367111206 29.577465 -0.6666667 3.7528042e-07
874 138.367111206 29.577465 0.0 3.7528042e-07
628 138.307830811 16.197184 2.0 0.10000021
629 138.307830811 16.197184 1.3333334 0.10000021
636 138.307830811 14.788733 0.6666667 0.10000019
635 138.307830811 14.788733 1.3333334 0.10000019
124 138.307830811 7.0422535 -0.6666667 8.9352476e-08
125 138.307830811 6.338028 0.0 8.041723e-08
132 138.307830811 4.2253523 -0.6666667 5.361149e-08
131 138.307830811 4.2253523 0.0 5.361149e-08
941 138.308029175 29.577465 0.0 0.20000038
942 138.308029175 29.577465 -0.6666667 0.20000038
949 138.308029175 26.056337 0.0 0.20000033
948 138.308029175 26.760563 0.0 0.20000035
437 138.308029175 17.605635 -1.3333334 0.100000225
438 138.308029175 17.605635 -2.0 0.100000225
445 138.308029175 14.788733 -1.3333334 0.10000019
444 138.308029175 15.492958 -2.0 0.100000195
636 138.365615845 14.788733 0.6666667 0.10000019
637 138.365615845 14.084507 2.0 0.10000018
644 138.365615845 12.676056 1.3333334 0.100000165
643 138.365615845 12.676056 2.0 0.100000165
132 138.365615845 4.2253523 -0.6666667 5.361149e-08
133 138.365615845 3.5211267 0.0 4.4676238e-08
140 138.365615845 1.4084507 -0.6666667 1.7870496e-08
139 138.365615845 1.4084507 0.0 1.7870496e-08
1139 138.366760254 38.028168 -1.3333334 4.8250337e-07
1140 138.366760254 38.028168 -2.0 4.8250337e-07
1147 138.366760254 42.957745 0.0 0.100000545
1146 138.366760254 36.619717 -2.0 4.6463285e-07
635 138.366760254 14.788733 1.3333334 0.10000019
636 138.366760254 14.788733 0.6666667 0.10000019
643 138.366760254 12.676056 2.0 0.100000165
642 138.366760254 13.380281 0.6666667 0.10000017
1438 138.36656189 47.887325 1.3333334 6.0759686e-07
1439 138.36656189 47.887325 0.6666667 6.0759686e-07
1446 138.36656189 47.183098 0.6666667 5.986616e-07
1445 138.36656189 47.183098 1.3333334 5.986616e-07
934 138.36656189 32.394367 -0.6666667 0.20000042
935 138.36656189 31.690142 0.0 0.2000004
942 138.36656189 29.577465 -0.6666667 0.20000038
941 138.36656189 29.577465 0.0 0.20000038
1198 138.308868408 40.84507 -2.0 0.20000052
1199 138.308868408 40.140846 0.0 0.20000051
1206 138.308868408 39.43662 -2.0 0.20000051
1205 138.308868408 39.43662 -1.3333334 0.20000051
694 138.308868408 19.014084 1.3333334 2.4125168e-07
695 138.308868408 19.014084 0.6666667 2.4125168e-07
702 138.308868408 23.239437 1.3333334 0.1000003
701 138.308868408 23.239437 2.0 0.1000003
1431 138.309066772 48.59155 1.3333334 6.165321e-07
1432 138.309066772 48.59155 0.6666667 6.165321e-07
1439 138.309066772 47.887325 0.6666667 6.0759686e-07
1438 138.309066772 47.887325 1.3333334 6.0759686e-07
927 138.309066772 35.21127 -0.6666667 0.20000045
928 138.309066772 34.507042 0.0 0.20000044
935 138.309066772 31.690142 0.0 0.2000004
934 138.309066772 32.394367 -0.6666667 0.20000042
687 138.365020752 20.422535 2.0 2.5912217e-07
688 138.365020752 20.422535 1.3333334 2.5912217e-07
695 138.365020752 19.014084 0.6666667 2.4125168e-07
694 138.365020752 19.014084 1.3333334 2.4125168e-07
183 138.365020752 11.267606 0.0 0.20000015
184 138.365020752 11.267606 -0.6666667 0.20000015
191 138.365020752 8.450705 0.0 0.2000001
190 138.365020752 9.154929 -0.6666667 0.20000012
1424 138.364868164 49.295776 1.3333334 6.2546735e-07
1425 138.364868164 49.295776 0.6666667 6.2546735e-07
1432 138.364868164 48.59155 0.6666667 6.165321e-07
1431 138.364868164 48.59155 1.3333334 6.165321e-07
920 138.364868164 25.352112 0.0 0.10000032
921 138.364868164 25.352112 -0.6666667 0.10000032
928 138.364868164 34.507042 0.0 0.20000044
927 138.364868164 35.21127 -0.6666667 0.20000045
680 138.31161499 22.535212 0.6666667 2.8592794e-07
681 138.31161499 21.830986 2.0 2.769927e-07
688 138.31161499 20.422535 1.3333334 2.5912217e-07
687 138.31161499 20.422535 2.0 2.5912217e-07
176 138.31161499 1.4084507 -0.6666667 0.10000002
177 138.31161499 0.70422536 0.0 0.10000001
184 138.31161499 11.267606 -0.6666667 0.20000015
183 138.31161499 11.267606 0.0 0.20000015
1417 138.311767578 50.0 1.3333334 6.3440257e-07
1418 138.311767578 50.0 0.6666667 6.3440257e-07
1425 138.311767578 49.295776 0.6666667 6.2546735e-07
1424 138.311767578 49.295776 1.3333334 6.2546735e-07
913 138.311767578 28.87324 -0.6666667 0.10000037
914 138.311767578 28.169014 0.0 0.10000036
921 138.311767578 25.352112 -0.6666667 0.10000032
920 138.311767578 25.352112 0.0 0.10000032
673 138.360931396 23.943663 0.6666667 3.0379843e-07
674 138.360931396 23.943663 0.0 3.0379843e-07
681 138.360931396 21.830986 2.0 2.769927e-07
680 138.360931396 22.535212 0.6666667 2.8592794e-07
169 138.360931396 3.5211267 0.0 0.100000046
170 138.360931396 3.5211267 -0.6666667 0.100000046
177 138.360931396 0.70422536 0.0 0.10000001
176 138.360931396 1.4084507 -0.6666667 0.10000002
1410 138.360794067 43.661972 1.3333334 0.20000055
1411 138.360794067 43.661972 0.6666667 0.20000055
1418 138.360794067 50.0 0.6666667 6.3440257e-07
1417 138.360794067 50.0 1.3333334 6.3440257e-07
906 138.360794067 30.985916 0.0 0.1000004
907 138.360794067 30.985916 -0.6666667 0.1000004
914 138.360794067 28.169014 0.0 0.10000036
913 138.360794067 28.87324 -0.6666667 0.10000037
1180 138.317581177 37.323944 -0.6666667 0.10000047
1181 138.317581177 37.323944 -1.3333334 0.10000047
1188 138.317581177 42.25352 -0.6666667 0.20000054
1187 138.317581177 42.25352 0.0 0.20000054
676 138.317581177 23.239437 1.3333334 2.9486318e-07
677 138.317581177 23.239437 0.6666667 2.9486318e-07
684 138.317581177 21.12676 2.0 2.6805742e-07
683 138.317581177 21.830986 0.6666667 2.769927e-07
883 138.317718506 26.760563 -0.6666667 3.395394e-07
884 138.317718506 26.056337 0.0 3.3060417e-07
891 138.317718506 36.619717 -0.6666667 0.10000046
890 138.317718506 36.619717 0.0 0.10000046
379 138.317718506 7.746479 0.6666667 0.2000001
380 138.317718506 7.0422535 2.0 0.20000009
387 138.317718506 22.535212 -1.3333334 2.8592794e-07
386 138.317718506 23.239437 -2.0 2.9486318e-07
1172 138.352478027 38.732395 -0.6666667 0.10000049
1173 138.352478027 38.732395 -1.3333334 0.10000049
1180 138.352478027 37.323944 -0.6666667 0.10000047
1179 138.352478027 37.323944 0.0 0.10000047
668 138.352478027 13.380281 0.6666667 0.20000017
669 138.352478027 12.676056 2.0 0.20000017
676 138.352478027 23.239437 1.3333334 2.9486318e-07
675 138.352478027 23.239437 2.0 2.9486318e-07
1403 138.352355957 44.366196 1.3333334 0.20000057
1404 138.352355957 44.366196 0.6666667 0.20000057
1411 138.352355957 43.661972 0.6666667 0.20000055
1410 138.352355957 43.661972 1.3333334 0.20000055
899 138.352355957 33.80282 -0.6666667 0.100000426
900 138.352355957 33.09859 0.0 0.10000042
907 138.352355957 30.985916 -0.6666667 0.1000004
906 138.352355957 30.985916 0.0 0.1000004
661 138.329330444 14.788733 1.3333334 0.2000002
662 138.329330444 14.788733 0.6666667 0.2000002
669 138.329330444 12.676056 2.0 0.20000017
668 138.329330444 13.380281 0.6666667 0.20000017
157 138.329330444 7.746479 0.0 0.1000001
158 138.329330444 7.746479 -0.6666667 0.1000001
165 138.329330444 4.9295774 0.0 0.10000006
164 138.329330444 5.633803 -0.6666667 0.100000076
885 138.329421997 26.056337 -0.6666667 3.3060417e-07
886 138.329421997 25.352112 0.0 3.2166892e-07
893 138.329421997 35.915493 -0.6666667 0.100000456
892 138.329421997 35.915493 0.0 0.100000456
381 138.329421997 7.0422535 1.3333334 0.20000009
382 138.329421997 7.0422535 0.6666667 0.20000009
389 138.329421997 21.830986 -1.3333334 2.769927e-07
388 138.329421997 22.535212 -2.0 2.8592794e-07
1142 138.336608887 37.323944 -0.6666667 4.7356812e-07
1143 138.336608887 37.323944 -1.3333334 4.7356812e-07
1150 138.336608887 42.957745 -2.0 0.100000545
1149 138.336608887 42.957745 -1.3333334 0.100000545
638 138.336608887 14.084507 1.3333334 0.10000018
639 138.336608887 14.084507 0.6666667 0.10000018
646 138.336608887 18.309858 1.3333334 0.20000024
645 138.336608887 18.309858 2.0 0.20000024
1499 138.336502075 48.59155 0.0 0.20000061
1500 138.336502075 48.59155 -0.6666667 0.20000061
1507 138.336502075 47.887325 -0.6666667 0.20000061
1506 138.336502075 47.887325 0.0 0.20000061
995 138.336502075 26.760563 2.0 0.100000344
996 138.336502075 26.760563 1.3333334 0.100000344
1003 138.336502075 25.352112 0.6666667 0.10000032
1002 138.336502075 25.352112 1.3333334 0.10000032
1150 138.35055542 42.957745 -2.0 0.100000545
1151 138.35055542 42.25352 0.0 0.10000054
1158 138.35055542 41.549297 -2.0 0.10000053
1157 138.35055542 41.549297 -1.3333334 0.10000053
646 138.35055542 18.309858 1.3333334 0.20000024
647 138.35055542 18.309858 0.6666667 0.20000024
654 138.35055542 16.197184 2.0 0.20000021
653 138.35055542 16.90141 0.6666667 0.20000021
1492 138.350646973 49.295776 0.0 0.20000063
1493 138.350646973 49.295776 -0.6666667 0.20000063
1500 138.350646973 48.59155 -0.6666667 0.20000061
1499 138.350646973 48.59155 0.0 0.20000061
988 138.350646973 28.87324 0.6666667 0.10000037
989 138.350646973 28.169014 2.0 0.10000036
996 138.350646973 26.760563 1.3333334 0.100000344
995 138.350646973 26.760563 2.0 0.100000344
1205 138.308868408 39.43662 -1.3333334 0.20000051
1206 138.308868408 39.43662 -2.0 0.20000051
1213 138.308868408 38.028168 -1.3333334 0.20000048
1212 138.308868408 38.028168 -0.6666667 0.20000048
701 138.308868408 23.239437 2.0 0.1000003
702 138.308868408 23.239437 1.3333334 0.1000003
709 138.308868408 21.830986 0.6666667 0.10000028
708 138.308868408 21.830986 1.3333334 0.10000028
1485 138.308776855 50.0 2.220446e-16 0.20000064
1486 138.308776855 50.0 -0.6666667 0.20000064
1493 138.308776855 49.295776 -0.6666667 0.20000063
1492 138.308776855 49.295776 0.0 0.20000063
981 138.308776855 30.28169 1.3333334 0.10000039
982 138.308776855 30.28169 0.6666667 0.10000039
989 138.308776855 28.169014 2.0 0.10000036
988 138.308776855 28.87324 0.6666667 0.10000037
708 138.386642456 21.830986 1.3333334 0.10000028
709 138.386642456 21.830986 0.6666667 0.10000028
716 138.386642456 19.71831 2.0 0.100000255
715 138.386642456 20.422535 0.6666667 0.10000026
204 138.386642456 4.2253523 -0.6666667 0.20000006
205 138.386642456 3.5211267 0.0 0.20000005
212 138.386642456 1.4084507 -0.6666667 0.20000002
211 138.386642456 1.4084507 0.0 0.20000002
1478 138.38671875 47.887325 -2.0 0.100000605
1479 138.38671875 47.183098 -0.6666667 0.1000006
1486 138.38671875 50.0 -0.6666667 0.20000064
1485 138.38671875 50.0 2.220446e-16 0.20000064
974 138.38671875 25.352112 2.0 3.2166892e-07
975 138.38671875 25.352112 1.3333334 3.2166892e-07
982 138.38671875 30.28169 0.6666667 0.10000039
981 138.38671875 30.28169 1.3333334 0.10000039
715 138.263015747 20.422535 0.6666667 0.10000026
716 138.263015747 19.71831 2.0 0.100000255
723 138.263015747 24.647888 0.6666667 0.20000032
722 138.263015747 24.647888 1.3333334 0.20000032
211 138.263015747 1.4084507 0.0 0.20000002
212 138.263015747 1.4084507 -0.6666667 0.20000002
219 138.263015747 5.633803 2.0 7.1481985e-08
218 138.263015747 6.338028 1.3333334 8.041723e-08
1471 138.262924194 48.59155 -2.0 0.10000062
1472 138.262924194 47.887325 2.0 0.100000605
1479 138.262924194 47.183098 -0.6666667 0.1000006
1478 138.262924194 47.887325 -2.0 0.100000605
967 138.262924194 27.464788 0.6666667 3.4847466e-07
968 138.262924194 26.760563 2.0 3.395394e-07
975 138.262924194 25.352112 1.3333334 3.2166892e-07
974 138.262924194 25.352112 2.0 3.2166892e-07
722 138.445037842 24.647888 1.3333334 0.20000032
723 138.445037842 24.647888 0.6666667 0.20000032
730 138.445037842 22.535212 2.0 0.20000029
729 138.445037842 23.239437 0.6666667 0.2000003
218 138.445037842 6.338028 1.3333334 8.041723e-08
219 138.445037842 5.633803 2.0 7.1481985e-08
226 138.445037842 4.2253523 1.3333334 5.361149e-08
225 138.445037842 4.2253523 2.0 5.361149e-08
608 138.366073608 14.788733 0.6666667 1.876402e-07
609 138.366073608 14.788733 0.0 1.876402e-07
616 138.366073608 12.676056 2.0 1.6083446e-07
615 138.366073608 13.380281 0.6666667 1.697697e-07
104 138.366073608 1.4084507 -2.0 0.20000002
105 138.366073608 0.70422536 -1.3333334 0.20000002
112 138.366073608 11.267606 -0.6666667 1.4296397e-07
111 138.366073608 11.267606 0.0 1.4296397e-07
615 138.308883667 13.380281 0.6666667 1.697697e-07
616 138.308883667 12.676056 2.0 1.6083446e-07
623 138.308883667 17.605635 1.3333334 0.100000225
622 138.308883667 17.605635 2.0 0.100000225
111 138.308883667 11.267606 0.0 1.4296397e-07
112 138.308883667 11.267606 -0.6666667 1.4296397e-07
119 138.308883667 8.450705 0.0 1.0722298e-07
118 138.308883667 9.154929 -0.6666667 1.1615821e-07
1118 138.31048584 41.549297 -0.6666667 5.271796e-07
1119 138.31048584 41.549297 -1.3333334 5.271796e-07
1126 138.31048584 40.140846 -0.6666667 5.0930913e-07
1125 138.31048584 40.140846 0.0 5.0930913e-07
614 138.31048584 13.380281 1.3333334 1.697697e-07
615 138.31048584 13.380281 0.6666667 1.697697e-07
622 138.31048584 17.605635 2.0 0.100000225
621 138.31048584 18.309858 0.6666667 0.10000023
832 138.365829468 31.690142 -1.3333334 0.2000004
833 138.365829468 31.690142 -2.0 0.2000004
840 138.365829468 28.87324 -1.3333334 0.20000038
839 138.365829468 29.577465 -2.0 0.20000038
328 138.365829468 7.0422535 1.3333334 8.9352476e-08
329 138.365829468 7.0422535 0.6666667 8.9352476e-08
336 138.365829468 11.267606 2.0 0.10000014
335 138.365829468 11.971831 0.6666667 0.10000015
1336 138.364257812 43.661972 -1.3333334 5.539854e-07
1337 138.364257812 43.661972 -2.0 5.539854e-07
1344 138.364257812 46.478874 0.6666667 0.10000059
1343 138.364257812 46.478874 1.3333334 0.10000059
832 138.364257812 31.690142 -1.3333334 0.2000004
833 138.364257812 31.690142 -2.0 0.2000004
840 138.364257812 28.87324 -1.3333334 0.20000038
839 138.364257812 29.577465 -2.0 0.20000038
853 138.309082031 25.352112 -2.0 0.20000033
854 138.309082031 36.619717 0.0 4.6463285e-07
861 138.309082031 34.507042 -0.6666667 4.3782714e-07
860 138.309082031 34.507042 0.0 4.3782714e-07
349 138.309082031 8.450705 1.3333334 0.100000106
350 138.309082031 8.450705 0.6666667 0.100000106
357 138.309082031 12.676056 0.6666667 0.20000017
356 138.309082031 7.0422535 0.6666667 0.10000009
1357 138.310668945 45.070423 1.3333334 0.100000575
1358 138.310668945 45.070423 0.6666667 0.100000575
1365 138.310668945 44.366196 0.6666667 0.10000056
1364 138.310668945 44.366196 1.3333334 0.10000056
853 138.310668945 25.352112 -2.0 0.20000033
854 138.310668945 36.619717 0.0 4.6463285e-07
861 138.310668945 34.507042 -0.6666667 4.3782714e-07
860 138.310668945 34.507042 0.0 4.3782714e-07
622 138.36605835 17.605635 2.0 0.100000225
623 138.36605835 17.605635 1.3333334 0.100000225
630 138.36605835 16.197184 0.6666667 0.10000021
629 138.36605835 16.197184 1.3333334 0.10000021
118 138.36605835 9.154929 -0.6666667 1.1615821e-07
119 138.36605835 8.450705 0.0 1.0722298e-07
126 138.36605835 6.338028 -0.6666667 8.041723e-08
125 138.36605835 6.338028 0.0 8.041723e-08
874 138.365844727 29.577465 0.0 3.7528042e-07
875 138.365844727 29.577465 -0.6666667 3.7528042e-07
882 138.365844727 26.760563 0.0 3.395394e-07
881 138.365844727 27.464788 -0.6666667 3.4847466e-07
370 138.365844727 9.859155 0.6666667 0.20000012
371 138.365844727 9.154929 2.0 0.20000012
378 138.365844727 7.746479 1.3333334 0.2000001
377 138.365844727 7.746479 2.0 0.2000001
1125 138.364440918 40.140846 0.0 5.0930913e-07
1126 138.364440918 40.140846 -0.6666667 5.0930913e-07
1133 138.364440918 38.732395 0.0 4.9143864e-07
1132 138.364440918 39.43662 -2.0 5.0037386e-07
621 138.364440918 18.309858 0.6666667 0.10000023
622 138.364440918 17.605635 2.0 0.100000225
629 138.364440918 16.197184 1.3333334 0.10000021
628 138.364440918 16.197184 2.0 0.10000021
1378 138.364273071 47.183098 1.3333334 0.2000006
1379 138.364273071 47.183098 0.6666667 0.2000006
1386 138.364273071 46.478874 -1.3333334 0.2000006
1385 138.364273071 46.478874 -0.6666667 0.2000006
874 138.364273071 29.577465 0.0 3.7528042e-07
875 138.364273071 29.577465 -0.6666667 3.7528042e-07
882 138.364273071 26.760563 0.0 3.395394e-07
881 138.364273071 27.464788 -0.6666667 3.4847466e-07
629 138.309082031 16.197184 1.3333334 0.10000021
630 138.309082031 16.197184 0.6666667 0.10000021
637 138.309082031 14.084507 2.0 0.10000018
636 138.309082031 14.788733 0.6666667 0.10000019
125 138.309082031 6.338028 0.0 8.041723e-08
126 138.309082031 6.338028 -0.6666667 8.041723e-08
133 138.309082031 3.5211267 0.0 4.4676238e-08
132 138.309082031 4.2253523 -0.6666667 5.361149e-08
932 138.309249878 33.09859 -0.6666667 0.20000042
933 138.309249878 32.394367 0.0 0.20000042
940 138.309249878 30.28169 -0.6666667 0.20000039
939 138.309249878 30.28169 0.0 0.20000039
428 138.309249878 21.12676 -2.0 0.10000027
429 138.309249878 20.422535 -1.3333334 0.10000026
436 138.309249878 18.309858 -2.0 0.10000023
435 138.309249878 18.309858 -1.3333334 0.10000023
1132 138.310653687 39.43662 -2.0 5.0037386e-07
1133 138.310653687 38.732395 0.0 4.9143864e-07
1140 138.310653687 38.028168 -2.0 4.8250337e-07
1139 138.310653687 38.028168 -1.3333334 4.8250337e-07
628 138.310653687 16.197184 2.0 0.10000021
629 138.310653687 16.197184 1.3333334 0.10000021
636 138.310653687 14.788733 0.6666667 0.10000019
635 138.310653687 14.788733 1.3333334 0.10000019
1140 138.364059448 38.028168 -2.0 4.8250337e-07
1141 138.364059448 37.323944 0.0 4.7356812e-07
1148 138.364059448 42.957745 -0.6666667 0.100000545
1147 138.364059448 42.957745 0.0 0.100000545
636 138.364059448 14.788733 0.6666667 0.10000019
637 138.364059448 14.084507 2.0 0.10000018
644 138.364059448 12.676056 1.3333334 0.100000165
643 138.364059448 12.676056 2.0 0.100000165
925 138.365447998 35.915493 -0.6666667 0.20000046
926 138.365447998 35.21127 0.0 0.20000045
933 138.365447998 32.394367 0.0 0.20000042
932 138.365447998 33.09859 -0.6666667 0.20000042
421 138.365447998 23.239437 -1.3333334 0.1000003
422 138.365447998 23.239437 -2.0 0.1000003
429 138.365447998 20.422535 -1.3333334 0.10000026
428 138.365447998 21.12676 -2.0 0.10000027
1429 138.363922119 49.295776 -2.0 6.2546735e-07
1430 138.363922119 48.59155 2.0 6.165321e-07
1437 138.363922119 47.887325 2.0 6.0759686e-07
1436 138.363922119 48.59155 -2.0 6.165321e-07
925 138.363922119 35.915493 -0.6666667 0.20000046
926 138.363922119 35.21127 0.0 0.20000045
933 138.363922119 32.394367 0.0 0.20000042
932 138.363922119 33.09859 -0.6666667 0.20000042
695 138.309860229 19.014084 0.6666667 2.4125168e-07
696 138.309860229 24.647888 1.3333334 0.100000314
703 138.309860229 23.239437 0.6666667 0.1000003
702 138.309860229 23.239437 1.3333334 0.1000003
191 138.309860229 8.450705 0.0 0.2000001
192 138.309860229 8.450705 -0.6666667 0.2000001
199 138.309860229 5.633803 0.0 0.20000008
198 138.309860229 6.338028 -0.6666667 0.20000008
1199 138.311386108 40.140846 0.0 0.20000051
1200 138.311386108 40.140846 -0.6666667 0.20000051
1207 138.311386108 38.732395 0.0 0.2000005
1206 138.311386108 39.43662 -2.0 0.20000051
695 138.311386108 19.014084 0.6666667 2.4125168e-07
696 138.311386108 24.647888 1.3333334 0.100000314
703 138.311386108 23.239437 0.6666667 0.1000003
702 138.311386108 23.239437 1.3333334 0.1000003
918 138.310012817 26.056337 0.0 0.10000033
919 138.310012817 26.056337 -0.6666667 0.10000033
926 138.310012817 35.21127 0.0 0.20000045
925 138.310012817 35.915493 -0.6666667 0.20000046
414 138.310012817 13.380281 -2.0 1.697697e-07
415 138.310012817 12.676056 -1.3333334 1.6083446e-07
422 138.310012817 23.239437 -2.0 0.1000003
421 138.310012817 23.239437 -1.3333334 0.1000003
1422 138.311508179 50.0 -2.0 6.3440257e-07
1423 138.311508179 49.295776 2.0 6.2546735e-07
1430 138.311508179 48.59155 2.0 6.165321e-07
1429 138.311508179 49.295776 -2.0 6.2546735e-07
918 138.311508179 26.056337 0.0 0.10000033
919 138.311508179 26.056337 -0.6666667 0.10000033
926 138.311508179 35.21127 0.0 0.20000045
925 138.311508179 35.915493 -0.6666667 0.20000046
1191 138.36428833 41.549297 0.0 0.20000052
1192 138.36428833 41.549297 -0.6666667 0.20000052
1199 138.36428833 40.140846 0.0 0.20000051
1198 138.36428833 40.84507 -2.0 0.20000052
687 138.36428833 20.422535 2.0 2.5912217e-07
688 138.36428833 20.422535 1.3333334 2.5912217e-07
695 138.36428833 19.014084 0.6666667 2.4125168e-07
694 138.36428833 19.014084 1.3333334 2.4125168e-07
911 138.364135742 29.577465 -0.6666667 0.100000374
912 138.364135742 28.87324 0.0 0.10000037
919 138.364135742 26.056337 -0.6666667 0.10000033
918 138.364135742 26.056337 0.0 0.10000033
407 138.364135742 15.492958 -1.3333334 1.9657546e-07
408 138.364135742 15.492958 -2.0 1.9657546e-07
415 138.364135742 12.676056 -1.3333334 1.6083446e-07
414 138.364135742 13.380281 -2.0 1.697697e-07
688 138.362808228 20.422535 1.3333334 2.5912217e-07
689 138.362808228 20.422535 0.6666667 2.5912217e-07
696 138.362808228 24.647888 1.3333334 0.100000314
695 138.362808228 19.014084 0.6666667 2.4125168e-07
184 138.362808228 11.267606 -0.6666667 0.20000015
185 138.362808228 10.56338 0.0 0.20000014
192 138.362808228 8.450705 -0.6666667 0.2000001
191 138.362808228 8.450705 0.0 0.2000001
1415 138.362701416 43.661972 -2.0 0.20000055
1416 138.362701416 50.0 2.0 6.3440257e-07
1423 138.362701416 49.295776 2.0 6.2546735e-07
1422 138.362701416 50.0 -2.0 6.3440257e-07
911 138.362701416 29.577465 -0.6666667 0.100000374
912 138.362701416 28.87324 0.0 0.10000037
919 138.362701416 26.056337 -0.6666667 0.10000033
918 138.362701416 26.056337 0.0 0.10000033
1184 138.31199646 42.957745 -0.6666667 0.20000055
1185 138.31199646 42.957745 -1.3333334 0.20000055
1192 138.31199646 41.549297 -0.6666667 0.20000052
1191 138.31199646 41.549297 0.0 0.20000052
680 138.31199646 22.535212 0.6666667 2.8592794e-07
681 138.31199646 21.830986 2.0 2.769927e-07
688 138.31199646 20.422535 1.3333334 2.5912217e-07
687 138.31199646 20.422535 2.0 2.5912217e-07
904 138.312149048 31.690142 0.0 0.100000404
905 138.312149048 31.690142 -0.6666667 0.100000404
912 138.312149048 28.87324 0.0 0.10000037
911 138.312149048 29.577465 -0.6666667 0.100000374
400 138.312149048 18.309858 -2.0 2.3231642e-07
401 138.312149048 17.605635 -1.3333334 2.233812e-07
408 138.312149048 15.492958 -2.0 1.9657546e-07
407 138.312149048 15.492958 -1.3333334 1.9657546e-07
681 138.313369751 21.830986 2.0 2.769927e-07
682 138.313369751 21.830986 1.3333334 2.769927e-07
689 138.313369751 20.422535 0.6666667 2.5912217e-07
688 138.313369751 20.422535 1.3333334 2.5912217e-07
177 138.313369751 0.70422536 0.0 0.10000001
178 138.313369751 0.70422536 -0.6666667 0.10000001
185 138.313369751 10.56338 0.0 0.20000014
184 138.313369751 11.267606 -0.6666667 0.20000015
1408 138.313461304 44.366196 -2.0 0.20000057
1409 138.313461304 43.661972 2.0 0.20000055
1416 138.313461304 50.0 2.0 6.3440257e-07
1415 138.313461304 43.661972 -2.0 0.20000055
904 138.313461304 31.690142 0.0 0.100000404
905 138.313461304 31.690142 -0.6666667 0.100000404
912 138.313461304 28.87324 0.0 0.10000037
911 138.313461304 29.577465 -0.6666667 0.100000374
1177 138.360992432 38.028168 -1.3333334 0.100000486
1178 138.360992432 38.028168 -2.0 0.100000486
1185 138.360992432 42.957745 -1.3333334 0.20000055
1184 138.360992432 42.957745 -0.6666667 0.20000055
673 138.360992432 23.943663 0.6666667 3.0379843e-07
674 138.360992432 23.943663 0.0 3.0379843e-07
681 138.360992432 21.830986 2.0 2.769927e-07
680 138.360992432 22.535212 0.6666667 2.8592794e-07
1411 138.360870361 43.661972 0.6666667 0.20000055
1412 138.360870361 43.661972 0.0 0.20000055
1419 138.360870361 50.0 -5.551115e-17 6.3440257e-07
1418 138.360870361 50.0 0.6666667 6.3440257e-07
907 138.360870361 30.985916 -0.6666667 0.1000004
908 138.360870361 30.28169 0.0 0.10000039
915 138.360870361 28.169014 -0.6666667 0.10000036
914 138.360870361 28.169014 0.0 0.10000036
897 138.359680176 34.507042 -0.6666667 0.10000044
898 138.359680176 33.80282 0.0 0.100000426
905 138.359680176 31.690142 -0.6666667 0.100000404
904 138.359680176 31.690142 0.0 0.100000404
393 138.359680176 20.422535 -1.3333334 2.5912217e-07
394 138.359680176 20.422535 -2.0 2.5912217e-07
401 138.359680176 17.605635 -1.3333334 2.233812e-07
400 138.359680176 18.309858 -2.0 2.3231642e-07
666 138.316894531 13.380281 2.0 0.20000017
667 138.316894531 13.380281 1.3333334 0.20000017
674 138.316894531 23.943663 0.0 3.0379843e-07
673 138.316894531 23.943663 0.6666667 3.0379843e-07
162 138.316894531 6.338028 -0.6666667 0.10000008
163 138.316894531 5.633803 0.0 0.100000076
170 138.316894531 3.5211267 -0.6666667 0.100000046
169 138.316894531 3.5211267 0.0 0.100000046
1387 138.317016602 46.478874 -2.0 0.2000006
1388 138.317016602 45.774647 2.0 0.20000058
1395 138.317016602 45.070423 2.0 0.20000057
1394 138.317016602 45.774647 -2.0 0.20000058
883 138.317016602 26.760563 -0.6666667 3.395394e-07
884 138.317016602 26.056337 0.0 3.3060417e-07
891 138.317016602 36.619717 -0.6666667 0.10000046
890 138.317016602 36.619717 0.0 0.10000046
1170 138.317871094 39.43662 -2.0 0.1000005
1171 138.317871094 38.732395 0.0 0.10000049
1178 138.317871094 38.028168 -2.0 0.100000486
1177 138.317871094 38.028168 -1.3333334 0.100000486
666 138.317871094 13.380281 2.0 0.20000017
667 138.317871094 13.380281 1.3333334 0.20000017
674 138.317871094 23.943663 0.0 3.0379843e-07
673 138.317871094 23.943663 0.6666667 3.0379843e-07
1173 138.354003906 38.732395 -1.3333334 0.10000049
1174 138.354003906 38.732395 -2.0 0.10000049
1181 138.354003906 37.323944 -1.3333334 0.10000047
1180 138.354003906 37.323944 -0.6666667 0.10000047
669 138.354003906 12.676056 2.0 0.20000017
670 138.354003906 12.676056 1.3333334 0.20000017
677 138.354003906 23.239437 0.6666667 2.9486318e-07
676 138.354003906 23.239437 1.3333334 2.9486318e-07
891 138.353912354 36.619717 -0.6666667 0.10000046
892 138.353912354 35.915493 0.0 0.100000456
899 138.353912354 33.80282 -0.6666667 0.100000426
898 138.353912354 33.80282 0.0 0.100000426
387 138.353912354 22.535212 -1.3333334 2.8592794e-07
388 138.353912354 22.535212 -2.0 2.8592794e-07
395 138.353912354 19.71831 -1.3333334 2.5018693e-07
394 138.353912354 20.422535 -2.0 2.5912217e-07
659 138.353317261 15.492958 0.6666667 0.2000002
660 138.353317261 14.788733 2.0 0.2000002
667 138.353317261 13.380281 1.3333334 0.20000017
666 138.353317261 13.380281 2.0 0.20000017
155 138.353317261 8.450705 0.0 0.100000106
156 138.353317261 8.450705 -0.6666667 0.100000106
163 138.353317261 5.633803 0.0 0.100000076
162 138.353317261 6.338028 -0.6666667 0.10000008
1395 138.353225708 45.070423 2.0 0.20000057
1396 138.353225708 45.070423 1.3333334 0.20000057
1403 138.353225708 44.366196 1.3333334 0.20000057
1402 138.353225708 44.366196 2.0 0.20000057
891 138.353225708 36.619717 -0.6666667 0.10000046
892 138.353225708 35.915493 0.0 0.100000456
899 138.353225708 33.80282 -0.6666667 0.100000426
898 138.353225708 33.80282 0.0 0.100000426
1165 138.326644897 40.140846 -1.3333334 0.10000051
1166 138.326644897 40.140846 -2.0 0.10000051
1173 138.326644897 38.732395 -1.3333334 0.10000049
1172 138.326644897 38.732395 -0.6666667 0.10000049
661 138.326644897 14.788733 1.3333334 0.2000002
662 138.326644897 14.788733 0.6666667 0.2000002
669 138.326644897 12.676056 2.0 0.20000017
668 138.326644897 13.380281 0.6666667 0.20000017
1396 138.32673645 45.070423 1.3333334 0.20000057
1397 138.32673645 45.070423 0.6666667 0.20000057
1404 138.32673645 44.366196 0.6666667 0.20000057
1403 138.32673645 44.366196 1.3333334 0.20000057
892 138.32673645 35.915493 0.0 0.100000456
893 138.32673645 35.915493 -0.6666667 0.100000456
900 138.32673645 33.09859 0.0 0.10000042
899 138.32673645 33.80282 -0.6666667 0.100000426
652 138.326919556 16.90141 1.3333334 0.20000021
653 138.326919556 16.90141 0.6666667 0.20000021
660 138.326919556 14.788733 2.0 0.2000002
659 138.326919556 15.492958 0.6666667 0.2000002
148 138.326919556 11.267606 -0.6666667 0.10000014
149 138.326919556 10.56338 0.0 0.100000136
156 138.326919556 8.450705 -0.6666667 0.100000106
155 138.326919556 8.450705 0.0 0.100000106
1397 138.327011108 45.070423 0.6666667 0.20000057
1398 138.327011108 45.070423 0.0 0.20000057
1405 138.327011108 44.366196 0.0 0.20000057
1404 138.327011108 44.366196 0.6666667 0.20000057
893 138.327011108 35.915493 -0.6666667 0.100000456
894 138.327011108 35.21127 0.0 0.10000045
901 138.327011108 33.09859 -0.6666667 0.10000042
900 138.327011108 33.09859 0.0 0.10000042
653 138.340744019 16.90141 0.6666667 0.20000021
654 138.340744019 16.197184 2.0 0.20000021
661 138.340744019 14.788733 1.3333334 0.2000002
660 138.340744019 14.788733 2.0 0.2000002
149 138.340744019 10.56338 0.0 0.100000136
150 138.340744019 10.56338 -0.6666667 0.100000136
157 138.340744019 7.746479 0.0 0.1000001
156 138.340744019 8.450705 -0.6666667 0.100000106
996 138.340667725 26.760563 1.3333334 0.100000344
997 138.340667725 26.760563 0.6666667 0.100000344
1004 138.340667725 24.647888 2.0 0.100000314
1003 138.340667725 25.352112 0.6666667 0.10000032
492 138.340667725 22.535212 0.0 2.8592794e-07
493 138.340667725 22.535212 -0.6666667 2.8592794e-07
500 138.340667725 19.71831 0.0 2.5018693e-07
499 138.340667725 20.422535 -0.6666667 2.5912217e-07
1500 138.340911865 48.59155 -0.6666667 0.20000061
1501 138.340911865 48.59155 -1.3333334 0.20000061
1508 138.340911865 47.887325 -1.3333334 0.20000061
1507 138.340911865 47.887325 -0.6666667 0.20000061
996 138.340911865 26.760563 1.3333334 0.100000344
997 138.340911865 26.760563 0.6666667 0.100000344
1004 138.340911865 24.647888 2.0 0.100000314
1003 138.340911865 25.352112 0.6666667 0.10000032
1143 138.344406128 37.323944 -1.3333334 4.7356812e-07
1144 138.344406128 37.323944 -2.0 4.7356812e-07
1151 138.344406128 42.25352 0.0 0.10000054
1150 138.344406128 42.957745 -2.0 0.100000545
639 138.344406128 14.084507 0.6666667 0.10000018
640 138.344406128 13.380281 2.0 0.10000017
647 138.344406128 18.309858 0.6666667 0.20000024
646 138.344406128 18.309858 1.3333334 0.20000024
989 138.344497681 28.169014 2.0 0.10000036
990 138.344497681 28.169014 1.3333334 0.10000036
997 138.344497681 26.760563 0.6666667 0.100000344
996 138.344497681 26.760563 1.3333334 0.100000344
485 138.344497681 13.380281 -1.3333334 0.20000017
486 138.344497681 13.380281 -2.0 0.20000017
493 138.344497681 22.535212 -0.6666667 2.8592794e-07
492 138.344497681 22.535212 0.0 2.8592794e-07
1493 138.343551636 49.295776 -0.6666667 0.20000063
1494 138.343551636 49.295776 -1.3333334 0.20000063
1501 138.343551636 48.59155 -1.3333334 0.20000061
1500 138.343551636 48.59155 -0.6666667 0.20000061
989 138.343551636 28.169014 2.0 0.10000036
990 138.343551636 28.169014 1.3333334 0.10000036
997 138.343551636 26.760563 0.6666667 0.100000344
996 138.343551636 26.760563 1.3333334 0.100000344
702 138.317520142 23.239437 1.3333334 0.1000003
703 138.317520142 23.239437 0.6666667 0.1000003
710 138.317520142 21.12676 2.0 0.10000027
709 138.317520142 21.830986 0.6666667 0.10000028
198 138.317520142 6.338028 -0.6666667 0.20000008
199 138.317520142 5.633803 0.0 0.20000008
206 138.317520142 3.5211267 -0.6666667 0.20000005
205 138.317520142 3.5211267 0.0 0.20000005
982 138.317459106 30.28169 0.6666667 0.10000039
983 138.317459106 29.577465 2.0 0.100000374
990 138.317459106 28.169014 1.3333334 0.10000036
989 138.317459106 28.169014 2.0 0.10000036
478 138.317459106 16.197184 -2.0 0.20000021
479 138.317459106 15.492958 -1.3333334 0.2000002
486 138.317459106 13.380281 -2.0 0.20000017
485 138.317459106 13.380281 -1.3333334 0.20000017
1206 138.319274902 39.43662 -2.0 0.20000051
1207 138.319274902 38.732395 0.0 0.2000005
1214 138.319274902 38.028168 -2.0 0.20000048
1213 138.319274902 38.028168 -1.3333334 0.20000048
702 138.319274902 23.239437 1.3333334 0.1000003
703 138.319274902 23.239437 0.6666667 0.1000003
710 138.319274902 21.12676 2.0 0.10000027
709 138.319274902 21.830986 0.6666667 0.10000028
1486 138.319198608 50.0 -0.6666667 0.20000064
1487 138.319198608 50.0 -1.3333334 0.20000064
1494 138.319198608 49.295776 -1.3333334 0.20000063
1493 138.319198608 49.295776 -0.6666667 0.20000063
982 138.319198608 30.28169 0.6666667 0.10000039
983 138.319198608 29.577465 2.0 0.100000374
990 138.319198608 28.169014 1.3333334 0.10000036
989 138.319198608 28.169014 2.0 0.10000036
1212 138.374572754 38.028168 -0.6666667 0.20000048
1213 138.374572754 38.028168 -1.3333334 0.20000048
1220 138.374572754 42.957745 1.3333334 5.450501e-07
1219 138.374572754 42.957745 2.0 5.450501e-07
708 138.374572754 21.830986 1.3333334 0.10000028
709 138.374572754 21.830986 0.6666667 0.10000028
716 138.374572754 19.71831 2.0 0.100000255
715 138.374572754 20.422535 0.6666667 0.10000026
975 138.374633789 25.352112 1.3333334 3.2166892e-07
976 138.374633789 25.352112 0.6666667 3.2166892e-07
983 138.374633789 29.577465 2.0 0.100000374
982 138.374633789 30.28169 0.6666667 0.10000039
471 138.374633789 18.309858 -1.3333334 0.20000024
472 138.374633789 18.309858 -2.0 0.20000024
479 138.374633789 15.492958 -1.3333334 0.2000002
478 138.374633789 16.197184 -2.0 0.20000021
709 138.371765137 21.830986 0.6666667 0.10000028
710 138.371765137 21.12676 2.0 0.10000027
717 138.371765137 19.71831 1.3333334 0.100000255
716 138.371765137 19.71831 2.0 0.100000255
205 138.371765137 3.5211267 0.0 0.20000005
206 138.371765137 3.5211267 -0.6666667 0.20000005
213 138.371765137 0.70422536 0.0 0.20000002
212 138.371765137 1.4084507 -0.6666667 0.20000002
1479 138.371826172 47.183098 -0.6666667 0.1000006
1480 138.371826172 47.183098 -1.3333334 0.1000006
1487 138.371826172 50.0 -1.3333334 0.20000064
1486 138.371826172 50.0 -0.6666667 0.20000064
975 138.371826172 25.352112 1.3333334 3.2166892e-07
976 138.371826172 25.352112 0.6666667 3.2166892e-07
983 138.371826172 29.577465 2.0 0.100000374
982 138.371826172 30.28169 0.6666667 0.10000039
1219 138.279281616 42.957745 2.0 5.450501e-07
1220 138.279281616 42.957745 1.3333334 5.450501e-07
1227 138.279281616 41.549297 0.6666667 5.271796e-07
1226 138.279281616 41.549297 1.3333334 5.271796e-07
715 138.279281616 20.422535 0.6666667 0.10000026
716 138.279281616 19.71831 2.0 0.100000255
723 138.279281616 24.647888 0.6666667 0.20000032
722 138.279281616 24.647888 1.3333334 0.20000032
968 138.279205322 26.760563 2.0 3.395394e-07
969 138.279205322 26.760563 1.3333334 3.395394e-07
976 138.279205322 25.352112 0.6666667 3.2166892e-07
975 138.279205322 25.352112 1.3333334 3.2166892e-07
464 138.279205322 21.12676 -2.0 0.20000027
465 138.279205322 20.422535 -1.3333334 0.20000026
472 138.279205322 18.309858 -2.0 0.20000024
471 138.279205322 18.309858 -1.3333334 0.20000024
716 138.28326416 19.71831 2.0 0.100000255
717 138.28326416 19.71831 1.3333334 0.100000255
724 138.28326416 23.943663 2.0 0.2000003
723 138.28326416 24.647888 0.6666667 0.20000032
212 138.28326416 1.4084507 -0.6666667 0.20000002
213 138.28326416 0.70422536 0.0 0.20000002
220 138.28326416 5.633803 1.3333334 7.1481985e-08
219 138.28326416 5.633803 2.0 7.1481985e-08
1472 138.283203125 47.887325 2.0 0.100000605
1473 138.283203125 47.887325 1.3333334 0.100000605
1480 138.283203125 47.183098 -1.3333334 0.1000006
1479 138.283203125 47.183098 -0.6666667 0.1000006
968 138.283203125 26.760563 2.0 3.395394e-07
969 138.283203125 26.760563 1.3333334 3.395394e-07
976 138.283203125 25.352112 0.6666667 3.2166892e-07
975 138.283203125 25.352112 1.3333334 3.2166892e-07
1226 138.423110962 41.549297 1.3333334 5.271796e-07
1227 138.423110962 41.549297 0.6666667 5.271796e-07
1234 138.423110962 39.43662 2.0 5.0037386e-07
1233 138.423110962 40.140846 0.6666667 5.0930913e-07
722 138.423110962 24.647888 1.3333334 0.20000032
723 138.423110962 24.647888 0.6666667 0.20000032
730 138.423110962 22.535212 2.0 0.20000029
729 138.423110962 23.239437 0.6666667 0.2000003
961 138.417709351 28.87324 0.6666667 3.6634515e-07
962 138.417709351 28.169014 2.0 3.574099e-07
969 138.417709351 26.760563 1.3333334 3.395394e-07
968 138.417709351 26.760563 2.0 3.395394e-07
457 138.417709351 23.239437 -1.3333334 0.2000003
458 138.417709351 23.239437 -2.0 0.2000003
465 138.417709351 20.422535 -1.3333334 0.20000026
464 138.417709351 21.12676 -2.0 0.20000027
723 138.417648315 24.647888 0.6666667 0.20000032
724 138.417648315 23.943663 2.0 0.2000003
731 138.417648315 22.535212 1.3333334 0.20000029
730 138.417648315 22.535212 2.0 0.20000029
219 138.417648315 5.633803 2.0 7.1481985e-08
220 138.417648315 5.633803 1.3333334 7.1481985e-08
227 138.417648315 4.2253523 0.6666667 5.361149e-08
226 138.417648315 4.2253523 1.3333334 5.361149e-08
839 138.364257812 29.577465 -2.0 0.20000038
840 138.364257812 28.87324 -1.3333334 0.20000038
847 138.364257812 26.760563 -0.6666667 0.20000035
846 138.364257812 27.464788 -2.0 0.20000035
335 138.364257812 11.971831 0.6666667 0.10000015
336 138.364257812 11.267606 2.0 0.10000014
343 138.364257812 9.859155 1.3333334 0.10000013
342 138.364257812 9.859155 2.0 0.10000013
1343 138.365829468 46.478874 1.3333334 0.10000059
1344 138.365829468 46.478874 0.6666667 0.10000059
1351 138.365829468 45.774647 0.6666667 0.10000058
1350 138.365829468 45.774647 1.3333334 0.10000058
839 138.365829468 29.577465 -2.0 0.20000038
840 138.365829468 28.87324 -1.3333334 0.20000038
847 138.365829468 26.760563 -0.6666667 0.20000035
846 138.365829468 27.464788 -2.0 0.20000035
1119 138.31048584 41.549297 -1.3333334 5.271796e-07
1120 138.31048584 41.549297 -2.0 5.271796e-07
1127 138.31048584 40.140846 -1.3333334 5.0930913e-07
1126 138.31048584 40.140846 -0.6666667 5.0930913e-07
615 138.31048584 13.380281 0.6666667 1.697697e-07
616 138.31048584 12.676056 2.0 1.6083446e-07
623 138.31048584 17.605635 1.3333334 0.100000225
622 138.31048584 17.605635 2.0 0.100000225
860 138.310668945 34.507042 0.0 4.3782714e-07
861 138.310668945 34.507042 -0.6666667 4.3782714e-07
868 138.310668945 31.690142 0.0 4.0208616e-07
867 138.310668945 32.394367 -0.6666667 4.110214e-07
356 138.310668945 7.0422535 0.6666667 0.10000009
357 138.310668945 12.676056 0.6666667 0.20000017
364 138.310668945 11.267606 0.6666667 0.20000015
363 138.310668945 11.267606 1.3333334 0.20000015
620 138.308883667 18.309858 1.3333334 0.10000023
621 138.308883667 18.309858 0.6666667 0.10000023
628 138.308883667 16.197184 2.0 0.10000021
627 138.308883667 16.90141 0.6666667 0.10000022
116 138.308883667 9.859155 -0.6666667 1.2509346e-07
117 138.308883667 9.154929 0.0 1.1615821e-07
124 138.308883667 7.0422535 -0.6666667 8.9352476e-08
123 138.308883667 7.0422535 0.0 8.9352476e-08
1364 138.309082031 44.366196 1.3333334 0.10000056
1365 138.309082031 44.366196 0.6666667 0.10000056
1372 138.309082031 43.661972 0.6666667 0.10000055
1371 138.309082031 43.661972 1.3333334 0.10000055
860 138.309082031 34.507042 0.0 4.3782714e-07
861 138.309082031 34.507042 -0.6666667 4.3782714e-07
868 138.309082031 31.690142 0.0 4.0208616e-07
867 138.309082031 32.394367 -0.6666667 4.110214e-07
1117 138.367370605 41.549297 0.0 5.271796e-07
1118 138.367370605 41.549297 -0.6666667 5.271796e-07
1125 138.367370605 40.140846 0.0 5.0930913e-07
1124 138.367370605 40.84507 -2.0 5.1824435e-07
613 138.367370605 13.380281 2.0 1.697697e-07
614 138.367370605 13.380281 1.3333334 1.697697e-07
621 138.367370605 18.309858 0.6666667 0.10000023
620 138.367370605 18.309858 1.3333334 0.10000023
846 138.367095947 27.464788 -2.0 0.20000035
847 138.367095947 26.760563 -0.6666667 0.20000035
854 138.367095947 36.619717 0.0 4.6463285e-07
853 138.367095947 25.352112 -2.0 0.20000033
342 138.367095947 9.859155 2.0 0.10000013
343 138.367095947 9.859155 1.3333334 0.10000013
350 138.367095947 8.450705 0.6666667 0.100000106
349 138.367095947 8.450705 1.3333334 0.100000106
1124 138.307540894 40.84507 -2.0 5.1824435e-07
1125 138.307540894 40.140846 0.0 5.0930913e-07
1132 138.307540894 39.43662 -2.0 5.0037386e-07
1131 138.307540894 39.43662 -1.3333334 5.0037386e-07
620 138.307540894 18.309858 1.3333334 0.10000023
621 138.307540894 18.309858 0.6666667 0.10000023
628 138.307540894 16.197184 2.0 0.10000021
627 138.307540894 16.90141 0.6666667 0.10000022
867 138.307815552 32.394367 -0.6666667 4.110214e-07
868 138.307815552 31.690142 0.0 4.0208616e-07
875 138.307815552 29.577465 -0.6666667 3.7528042e-07
874 138.307815552 29.577465 0.0 3.7528042e-07
363 138.307815552 11.267606 1.3333334 0.20000015
364 138.307815552 11.267606 0.6666667 0.20000015
371 138.307815552 9.154929 2.0 0.20000012
370 138.307815552 9.859155 0.6666667 0.20000012
1126 138.364440918 40.140846 -0.6666667 5.0930913e-07
1127 138.364440918 40.140846 -1.3333334 5.0930913e-07
1134 138.364440918 38.732395 -0.6666667 4.9143864e-07
1133 138.364440918 38.732395 0.0 4.9143864e-07
622 138.364440918 17.605635 2.0 0.100000225
623 138.364440918 17.605635 1.3333334 0.100000225
630 138.364440918 16.197184 0.6666667 0.10000021
629 138.364440918 16.197184 1.3333334 0.10000021
881 138.364273071 27.464788 -0.6666667 3.4847466e-07
882 138.364273071 26.760563 0.0 3.395394e-07
889 138.364273071 24.647888 -0.6666667 3.1273368e-07
888 138.364273071 24.647888 0.0 3.1273368e-07
377 138.364273071 7.746479 2.0 0.2000001
378 138.364273071 7.746479 1.3333334 0.2000001
385 138.364273071 23.239437 -1.3333334 2.9486318e-07
384 138.364273071 23.943663 -2.0 3.0379843e-07
627 138.36605835 16.90141 0.6666667 0.10000022
628 138.36605835 16.197184 2.0 0.10000021
635 138.36605835 14.788733 1.3333334 0.10000019
634 138.36605835 14.788733 2.0 0.10000019
123 138.36605835 7.0422535 0.0 8.9352476e-08
124 138.36605835 7.0422535 -0.6666667 8.9352476e-08
131 138.36605835 4.2253523 0.0 5.361149e-08
130 138.36605835 4.9295774 -0.6666667 6.254673e-08
1385 138.365844727 46.478874 -0.6666667 0.2000006
1386 138.365844727 46.478874 -1.3333334 0.2000006
1393 138.365844727 45.774647 -1.3333334 0.20000058
1392 138.365844727 45.774647 -0.6666667 0.20000058
881 138.365844727 27.464788 -0.6666667 3.4847466e-07
882 138.365844727 26.760563 0.0 3.395394e-07
889 138.365844727 24.647888 -0.6666667 3.1273368e-07
888 138.365844727 24.647888 0.0 3.1273368e-07
1131 138.367355347 39.43662 -1.3333334 5.0037386e-07
1132 138.367355347 39.43662 -2.0 5.0037386e-07
1139 138.367355347 38.028168 -1.3333334 4.8250337e-07
1138 138.367355347 38.028168 -0.6666667 4.8250337e-07
627 138.367355347 16.90141 0.6666667 0.10000022
628 138.367355347 16.197184 2.0 0.10000021
635 138.367355347 14.788733 1.3333334 0.10000019
634 138.367355347 14.788733 2.0 0.10000019
940 138.367111206 30.28169 -0.6666667 0.20000039
941 138.367111206 29.577465 0.0 0.20000038
948 138.367111206 26.760563 0.0 0.20000035
947 138.367111206 27.464788 0.0 0.20000035
436 138.367111206 18.309858 -2.0 0.10000023
437 138.367111206 17.605635 -1.3333334 0.100000225
444 138.367111206 15.492958 -2.0 0.100000195
443 138.367111206 15.492958 -1.3333334 0.100000195
1133 138.310653687 38.732395 0.0 4.9143864e-07
1134 138.310653687 38.732395 -0.6666667 4.9143864e-07
1141 138.310653687 37.323944 0.0 4.7356812e-07
1140 138.310653687 38.028168 -2.0 4.8250337e-07
629 138.310653687 16.197184 1.3333334 0.10000021
630 138.310653687 16.197184 0.6666667 0.10000021
637 138.310653687 14.084507 2.0 0.10000018
636 138.310653687 14.788733 0.6666667 0.10000019
1436 138.310806274 48.59155 -2.0 6.165321e-07
1437 138.310806274 47.887325 2.0 6.0759686e-07
1444 138.310806274 47.183098 2.0 5.986616e-07
1443 138.310806274 47.887325 -2.0 6.0759686e-07
932 138.310806274 33.09859 -0.6666667 0.20000042
933 138.310806274 32.394367 0.0 0.20000042
940 138.310806274 30.28169 -0.6666667 0.20000039
939 138.310806274 30.28169 0.0 0.20000039
933 138.310806274 32.394367 0.0 0.20000042
934 138.310806274 32.394367 -0.6666667 0.20000042
941 138.310806274 29.577465 0.0 0.20000038
940 138.310806274 30.28169 -0.6666667 0.20000039
429 138.310806274 20.422535 -1.3333334 0.10000026
430 138.310806274 20.422535 -2.0 0.10000026
437 138.310806274 17.605635 -1.3333334 0.100000225
436 138.310806274 18.309858 -2.0 0.10000023
634 138.309066772 14.788733 2.0 0.10000019
635 138.309066772 14.788733 1.3333334 0.10000019
642 138.309066772 13.380281 0.6666667 0.10000017
641 138.309066772 13.380281 1.3333334 0.10000017
130 138.309066772 4.9295774 -0.6666667 6.254673e-08
131 138.309066772 4.2253523 0.0 5.361149e-08
138 138.309066772 2.1126761 -0.6666667 2.6805743e-08
137 138.309066772 2.1126761 0.0 2.6805743e-08
1437 138.309249878 47.887325 2.0 6.0759686e-07
1438 138.309249878 47.887325 1.3333334 6.0759686e-07
1445 138.309249878 47.183098 1.3333334 5.986616e-07
1444 138.309249878 47.183098 2.0 5.986616e-07
933 138.309249878 32.394367 0.0 0.20000042
934 138.309249878 32.394367 -0.6666667 0.20000042
941 138.309249878 29.577465 0.0 0.20000038
940 138.309249878 30.28169 -0.6666667 0.20000039
635 138.307830811 14.788733 1.3333334 0.10000019
636 138.307830811 14.788733 0.6666667 0.10000019
643 138.307830811 12.676056 2.0 0.100000165
642 138.307830811 13.380281 0.6666667 0.10000017
131 138.307830811 4.2253523 0.0 5.361149e-08
132 138.307830811 4.2253523 -0.6666667 5.361149e-08
139 138.307830811 1.4084507 0.0 1.7870496e-08
138 138.307830811 2.1126761 -0.6666667 2.6805743e-08
934 138.308029175 32.394367 -0.6666667 0.20000042
935 138.308029175 31.690142 0.0 0.2000004
942 138.308029175 29.577465 -0.6666667 0.20000038
941 138.308029175 29.577465 0.0 0.20000038
430 138.308029175 20.422535 -2.0 0.10000026
431 138.308029175 19.71831 -1.3333334 0.100000255
438 138.308029175 17.605635 -2.0 0.100000225
437 138.308029175 17.605635 -1.3333334 0.100000225
642 138.364059448 13.380281 0.6666667 0.10000017
643 138.364059448 12.676056 2.0 0.100000165
650 138.364059448 17.605635 0.6666667 0.20000023
649 138.364059448 17.605635 1.3333334 0.20000023
138 138.364059448 2.1126761 -0.6666667 2.6805743e-08
139 138.364059448 1.4084507 0.0 1.7870496e-08
146 138.364059448 11.971831 -0.6666667 0.10000015
145 138.364059448 11.971831 0.0 0.10000015
926 138.363922119 35.21127 0.0 0.20000045
927 138.363922119 35.21127 -0.6666667 0.20000045
934 138.363922119 32.394367 -0.6666667 0.20000042
933 138.363922119 32.394367 0.0 0.20000042
422 138.363922119 23.239437 -2.0 0.1000003
423 138.363922119 22.535212 -1.3333334 0.100000285
430 138.363922119 20.422535 -2.0 0.10000026
429 138.363922119 20.422535 -1.3333334 0.10000026
643 138.365615845 12.676056 2.0 0.100000165
644 138.365615845 12.676056 1.3333334 0.100000165
651 138.365615845 16.90141 2.0 0.20000021
650 138.365615845 17.605635 0.6666667 0.20000023
139 138.365615845 1.4084507 0.0 1.7870496e-08
140 138.365615845 1.4084507 -0.6666667 1.7870496e-08
147 138.365615845 11.267606 0.0 0.10000014
146 138.365615845 11.971831 -0.6666667 0.10000015
1430 138.365447998 48.59155 2.0 6.165321e-07
1431 138.365447998 48.59155 1.3333334 6.165321e-07
1438 138.365447998 47.887325 1.3333334 6.0759686e-07
1437 138.365447998 47.887325 2.0 6.0759686e-07
926 138.365447998 35.21127 0.0 0.20000045
927 138.365447998 35.21127 -0.6666667 0.20000045
934 138.365447998 32.394367 -0.6666667 0.20000042
933 138.365447998 32.394367 0.0 0.20000042
694 138.366760254 19.014084 1.3333334 2.4125168e-07
695 138.366760254 19.014084 0.6666667 2.4125168e-07
702 138.366760254 23.239437 1.3333334 0.1000003
701 138.366760254 23.239437 2.0 0.1000003
190 138.366760254 9.154929 -0.6666667 0.20000012
191 138.366760254 8.450705 0.0 0.2000001
198 138.366760254 6.338028 -0.6666667 0.20000008
197 138.366760254 6.338028 0.0 0.20000008
927 138.36656189 35.21127 -0.6666667 0.20000045
928 138.36656189 34.507042 0.0 0.20000044
935 138.36656189 31.690142 0.0 0.2000004
934 138.36656189 32.394367 -0.6666667 0.20000042
423 138.36656189 22.535212 -1.3333334 0.100000285
424 138.36656189 22.535212 -2.0 0.100000285
431 138.36656189 19.71831 -1.3333334 0.100000255
430 138.36656189 20.422535 -2.0 0.10000026
696 138.311386108 24.647888 1.3333334 0.100000314
697 138.311386108 24.647888 0.6666667 0.100000314
704 138.311386108 22.535212 2.0 0.100000285
703 138.311386108 23.239437 0.6666667 0.1000003
192 138.311386108 8.450705 -0.6666667 0.2000001
193 138.311386108 7.746479 0.0 0.2000001
200 138.311386108 5.633803 -0.6666667 0.20000008
199 138.311386108 5.633803 0.0 0.20000008
919 138.311508179 26.056337 -0.6666667 0.10000033
920 138.311508179 25.352112 0.0 0.10000032
927 138.311508179 35.21127 -0.6666667 0.20000045
926 138.311508179 35.21127 0.0 0.20000045
415 138.311508179 12.676056 -1.3333334 1.6083446e-07
416 138.311508179 12.676056 -2.0 1.6083446e-07
423 138.311508179 22.535212 -1.3333334 0.100000285
422 138.311508179 23.239437 -2.0 0.1000003
697 138.309860229 24.647888 0.6666667 0.100000314
698 138.309860229 23.943663 2.0 0.10000031
705 138.309860229 22.535212 1.3333334 0.100000285
704 138.309860229 22.535212 2.0 0.100000285
193 138.309860229 7.746479 0.0 0.2000001
194 138.309860229 7.746479 -0.6666667 0.2000001
201 138.309860229 4.9295774 0.0 0.20000006
200 138.309860229 5.633803 -0.6666667 0.20000008
1423 138.310012817 49.295776 2.0 6.2546735e-07
1424 138.310012817 49.295776 1.3333334 6.2546735e-07
1431 138.310012817 48.59155 1.3333334 6.165321e-07
1430 138.310012817 48.59155 2.0 6.165321e-07
919 138.310012817 26.056337 -0.6666667 0.10000033
920 138.310012817 25.352112 0.0 0.10000032
927 138.310012817 35.21127 -0.6666667 0.20000045
926 138.310012817 35.21127 0.0 0.20000045
1200 138.308868408 40.140846 -0.6666667 0.20000051
1201 138.308868408 40.140846 -1.3333334 0.20000051
1208 138.308868408 38.732395 -0.6666667 0.2000005
1207 138.308868408 38.732395 0.0 0.2000005
696 138.308868408 24.647888 1.3333334 0.100000314
697 138.308868408 24.647888 0.6666667 0.100000314
704 138.308868408 22.535212 2.0 0.100000285
703 138.308868408 23.239437 0.6666667 0.1000003
920 138.309066772 25.352112 0.0 0.10000032
921 138.309066772 25.352112 -0.6666667 0.10000032
928 138.309066772 34.507042 0.0 0.20000044
927 138.309066772 35.21127 -0.6666667 0.20000045
416 138.309066772 12.676056 -2.0 1.6083446e-07
417 138.309066772 24.647888 -1.3333334 0.100000314
424 138.309066772 22.535212 -2.0 0.100000285
423 138.309066772 22.535212 -1.3333334 0.100000285
1192 138.362808228 41.549297 -0.6666667 0.20000052
1193 138.362808228 41.549297 -1.3333334 0.20000052
1200 138.362808228 40.140846 -0.6666667 0.20000051
1199 138.362808228 40.140846 0.0 0.20000051
688 138.362808228 20.422535 1.3333334 2.5912217e-07
689 138.362808228 20.422535 0.6666667 2.5912217e-07
696 138.362808228 24.647888 1.3333334 0.100000314
695 138.362808228 19.014084 0.6666667 2.4125168e-07
912 138.362701416 28.87324 0.0 0.10000037
913 138.362701416 28.87324 -0.6666667 0.10000037
920 138.362701416 25.352112 0.0 0.10000032
919 138.362701416 26.056337 -0.6666667 0.10000033
408 138.362701416 15.492958 -2.0 1.9657546e-07
409 138.362701416 14.788733 -1.3333334 1.876402e-07
416 138.362701416 12.676056 -2.0 1.6083446e-07
415 138.362701416 12.676056 -1.3333334 1.6083446e-07
689 138.36428833 20.422535 0.6666667 2.5912217e-07
690 138.36428833 19.71831 2.0 2.5018693e-07
697 138.36428833 24.647888 0.6666667 0.100000314
696 138.36428833 24.647888 1.3333334 0.100000314
185 138.36428833 10.56338 0.0 0.20000014
186 138.36428833 10.56338 -0.6666667 0.20000014
193 138.36428833 7.746479 0.0 0.2000001
192 138.36428833 8.450705 -0.6666667 0.2000001
1416 138.364135742 50.0 2.0 6.3440257e-07
1417 138.364135742 50.0 1.3333334 6.3440257e-07
1424 138.364135742 49.295776 1.3333334 6.2546735e-07
1423 138.364135742 49.295776 2.0 6.2546735e-07
912 138.364135742 28.87324 0.0 0.10000037
913 138.364135742 28.87324 -0.6666667 0.10000037
920 138.364135742 25.352112 0.0 0.10000032
919 138.364135742 26.056337 -0.6666667 0.10000033
1193 138.365020752 41.549297 -1.3333334 0.20000052
1194 138.365020752 41.549297 -2.0 0.20000052
1201 138.365020752 40.140846 -1.3333334 0.20000051
1200 138.365020752 40.140846 -0.6666667 0.20000051
689 138.365020752 20.422535 0.6666667 2.5912217e-07
690 138.365020752 19.71831 2.0 2.5018693e-07
697 138.365020752 24.647888 0.6666667 0.100000314
696 138.365020752 24.647888 1.3333334 0.100000314
913 138.364868164 28.87324 -0.6666667 0.10000037
914 138.364868164 28.169014 0.0 0.10000036
921 138.364868164 25.352112 -0.6666667 0.10000032
920 138.364868164 25.352112 0.0 0.10000032
409 138.364868164 14.788733 -1.3333334 1.876402e-07
410 138.364868164 14.788733 -2.0 1.876402e-07
417 138.364868164 24.647888 -1.3333334 0.100000314
416 138.364868164 12.676056 -2.0 1.6083446e-07
1185 138.313369751 42.957745 -1.3333334 0.20000055
1186 138.313369751 42.957745 -2.0 0.20000055
1193 138.313369751 41.549297 -1.3333334 0.20000052
1192 138.313369751 41.549297 -0.6666667 0.20000052
681 138.313369751 21.830986 2.0 2.769927e-07
682 138.313369751 21.830986 1.3333334 2.769927e-07
689 138.313369751 20.422535 0.6666667 2.5912217e-07
688 138.313369751 20.422535 1.3333334 2.5912217e-07
905 138.313461304 31.690142 -0.6666667 0.100000404
906 138.313461304 30.985916 0.0 0.1000004
913 138.313461304 28.87324 -0.6666667 0.10000037
912 138.313461304 28.87324 0.0 0.10000037
401 138.313461304 17.605635 -1.3333334 2.233812e-07
402 138.313461304 17.605635 -2.0 2.233812e-07
409 138.313461304 14.788733 -1.3333334 1.876402e-07
408 138.313461304 15.492958 -2.0 1.9657546e-07
682 138.31199646 21.830986 1.3333334 2.769927e-07
683 138.31199646 21.830986 0.6666667 2.769927e-07
690 138.31199646 19.71831 2.0 2.5018693e-07
689 138.31199646 20.422535 0.6666667 2.5912217e-07
178 138.31199646 0.70422536 -0.6666667 0.10000001
179 138.31199646 -1.2688052e-09 0.0 0.1
186 138.31199646 10.56338 -0.6666667 0.20000014
185 138.31199646 10.56338 0.0 0.20000014
1409 138.312149048 43.661972 2.0 0.20000055
1410 138.312149048 43.661972 1.3333334 0.20000055
1417 138.312149048 50.0 1.3333334 6.3440257e-07
1416 138.312149048 50.0 2.0 6.3440257e-07
905 138.312149048 31.690142 -0.6666667 0.100000404
906 138.312149048 30.985916 0.0 0.1000004
913 138.312149048 28.87324 -0.6666667 0.10000037
912 138.312149048 28.87324 0.0 0.10000037
1186 138.31161499 42.957745 -2.0 0.20000055
1187 138.31161499 42.25352 0.0 0.20000054
1194 138.31161499 41.549297 -2.0 0.20000052
1193 138.31161499 41.549297 -1.3333334 0.20000052
682 138.31161499 21.830986 1.3333334 2.769927e-07
683 138.31161499 21.830986 0.6666667 2.769927e-07
690 138.31161499 19.71831 2.0 2.5018693e-07
689 138.31161499 20.422535 0.6666667 2.5912217e-07
906 138.311767578 30.985916 0.0 0.1000004
907 138.311767578 30.985916 -0.6666667 0.1000004
914 138.311767578 28.169014 0.0 0.10000036
913 138.311767578 28.87324 -0.6666667 0.10000037
402 138.311767578 17.605635 -2.0 2.233812e-07
403 138.311767578 16.90141 -1.3333334 2.1444595e-07
410 138.311767578 14.788733 -2.0 1.876402e-07
409 138.311767578 14.788733 -1.3333334 1.876402e-07
674 138.359786987 23.943663 0.0 3.0379843e-07
675 138.359786987 23.239437 2.0 2.9486318e-07
682 138.359786987 21.830986 1.3333334 2.769927e-07
681 138.359786987 21.830986 2.0 2.769927e-07
170 138.359786987 3.5211267 -0.6666667 0.100000046
171 138.359786987 2.8169014 0.0 0.10000004
178 138.359786987 0.70422536 -0.6666667 0.10000001
177 138.359786987 0.70422536 0.0 0.10000001
1178 138.359786987 38.028168 -2.0 0.100000486
1179 138.359786987 37.323944 0.0 0.10000047
1186 138.359786987 42.957745 -2.0 0.20000055
1185 138.359786987 42.957745 -1.3333334 0.20000055
674 138.359786987 23.943663 0.0 3.0379843e-07
675 138.359786987 23.239437 2.0 2.9486318e-07
682 138.359786987 21.830986 1.3333334 2.769927e-07
681 138.359786987 21.830986 2.0 2.769927e-07
1401 138.359680176 45.070423 -2.0 0.20000057
1402 138.359680176 44.366196 2.0 0.20000057
1409 138.359680176 43.661972 2.0 0.20000055
1408 138.359680176 44.366196 -2.0 0.20000057
897 138.359680176 34.507042 -0.6666667 0.10000044
898 138.359680176 33.80282 0.0 0.100000426
905 138.359680176 31.690142 -0.6666667 0.100000404
904 138.359680176 31.690142 0.0 0.100000404
675 138.360992432 23.239437 2.0 2.9486318e-07
676 138.360992432 23.239437 1.3333334 2.9486318e-07
683 138.360992432 21.830986 0.6666667 2.769927e-07
682 138.360992432 21.830986 1.3333334 2.769927e-07
171 138.360992432 2.8169014 0.0 0.10000004
172 138.360992432 2.8169014 -0.6666667 0.10000004
179 138.360992432 -1.2688052e-09 0.0 0.1
178 138.360992432 0.70422536 -0.6666667 0.10000001
890 138.360870361 36.619717 0.0 0.10000046
891 138.360870361 36.619717 -0.6666667 0.10000046
898 138.360870361 33.80282 0.0 0.100000426
897 138.360870361 34.507042 -0.6666667 0.10000044
386 138.360870361 23.239437 -2.0 2.9486318e-07
387 138.360870361 22.535212 -1.3333334 2.8592794e-07
394 138.360870361 20.422535 -2.0 2.5912217e-07
393 138.360870361 20.422535 -1.3333334 2.5912217e-07
1179 138.360931396 37.323944 0.0 0.10000047
1180 138.360931396 37.323944 -0.6666667 0.10000047
1187 138.360931396 42.25352 0.0 0.20000054
1186 138.360931396 42.957745 -2.0 0.20000055
675 138.360931396 23.239437 2.0 2.9486318e-07
676 138.360931396 23.239437 1.3333334 2.9486318e-07
683 138.360931396 21.830986 0.6666667 2.769927e-07
682 138.360931396 21.830986 1.3333334 2.769927e-07
1394 138.360794067 45.774647 -2.0 0.20000058
1395 138.360794067 45.070423 2.0 0.20000057
1402 138.360794067 44.366196 2.0 0.20000057
1401 138.360794067 45.070423 -2.0 0.20000057
890 138.360794067 36.619717 0.0 0.10000046
891 138.360794067 36.619717 -0.6666667 0.10000046
898 138.360794067 33.80282 0.0 0.100000426
897 138.360794067 34.507042 -0.6666667 0.10000044
1227 138.417648315 41.549297 0.6666667 5.271796e-07
1228 138.417648315 40.84507 2.0 5.1824435e-07
1235 138.417648315 39.43662 1.3333334 5.0037386e-07
1234 138.417648315 39.43662 2.0 5.0037386e-07
723 138.417648315 24.647888 0.6666667 0.20000032
724 138.417648315 23.943663 2.0 0.2000003
731 138.417648315 22.535212 1.3333334 0.20000029
730 138.417648315 22.535212 2.0 0.20000029
1220 138.28326416 42.957745 1.3333334 5.450501e-07
1221 138.28326416 42.957745 0.6666667 5.450501e-07
1228 138.28326416 40.84507 2.0 5.1824435e-07
1227 138.28326416 41.549297 0.6666667 5.271796e-07
716 138.28326416 19.71831 2.0 0.100000255
717 138.28326416 19.71831 1.3333334 0.100000255
724 138.28326416 23.943663 2.0 0.2000003
723 138.28326416 24.647888 0.6666667 0.20000032
969 138.283203125 26.760563 1.3333334 3.395394e-07
970 138.283203125 26.760563 0.6666667 3.395394e-07
977 138.283203125 24.647888 2.0 3.1273368e-07
976 138.283203125 25.352112 0.6666667 3.2166892e-07
465 138.283203125 20.422535 -1.3333334 0.20000026
466 138.283203125 20.422535 -2.0 0.20000026
473 138.283203125 17.605635 -1.3333334 0.20000023
472 138.283203125 18.309858 -2.0 0.20000024
724 138.423110962 23.943663 2.0 0.2000003
725 138.423110962 23.943663 1.3333334 0.2000003
732 138.423110962 22.535212 0.6666667 0.20000029
731 138.423110962 22.535212 1.3333334 0.20000029
220 138.423110962 5.633803 1.3333334 7.1481985e-08
221 138.423110962 5.633803 0.6666667 7.1481985e-08
228 138.423110962 3.5211267 2.0 4.4676238e-08
227 138.423110962 4.2253523 0.6666667 5.361149e-08
717 138.279281616 19.71831 1.3333334 0.100000255
718 138.279281616 19.71831 0.6666667 0.100000255
725 138.279281616 23.943663 1.3333334 0.2000003
724 138.279281616 23.943663 2.0 0.2000003
213 138.279281616 0.70422536 0.0 0.20000002
214 138.279281616 0.70422536 -0.6666667 0.20000002
221 138.279281616 5.633803 0.6666667 7.1481985e-08
220 138.279281616 5.633803 1.3333334 7.1481985e-08
970 138.279205322 26.760563 0.6666667 3.395394e-07
971 138.279205322 26.056337 2.0 3.3060417e-07
978 138.279205322 24.647888 1.3333334 3.1273368e-07
977 138.279205322 24.647888 2.0 3.1273368e-07
466 138.279205322 20.422535 -2.0 0.20000026
467 138.279205322 19.71831 -1.3333334 0.20000026
474 138.279205322 17.605635 -2.0 0.20000023
473 138.279205322 17.605635 -1.3333334 0.20000023
1213 138.371765137 38.028168 -1.3333334 0.20000048
1214 138.371765137 38.028168 -2.0 0.20000048
1221 138.371765137 42.957745 0.6666667 5.450501e-07
1220 138.371765137 42.957745 1.3333334 5.450501e-07
709 138.371765137 21.830986 0.6666667 0.10000028
710 138.371765137 21.12676 2.0 0.10000027
717 138.371765137 19.71831 1.3333334 0.100000255
716 138.371765137 19.71831 2.0 0.100000255
976 138.371826172 25.352112 0.6666667 3.2166892e-07
977 138.371826172 24.647888 2.0 3.1273368e-07
984 138.371826172 29.577465 1.3333334 0.100000374
983 138.371826172 29.577465 2.0 0.100000374
472 138.371826172 18.309858 -2.0 0.20000024
473 138.371826172 17.605635 -1.3333334 0.20000023
480 138.371826172 15.492958 -2.0 0.2000002
479 138.371826172 15.492958 -1.3333334 0.2000002
710 138.374572754 21.12676 2.0 0.10000027
711 138.374572754 21.12676 1.3333334 0.10000027
718 138.374572754 19.71831 0.6666667 0.100000255
717 138.374572754 19.71831 1.3333334 0.100000255
206 138.374572754 3.5211267 -0.6666667 0.20000005
207 138.374572754 2.8169014 0.0 0.20000003
214 138.374572754 0.70422536 -0.6666667 0.20000002
213 138.374572754 0.70422536 0.0 0.20000002
1480 138.374633789 47.183098 -1.3333334 0.1000006
1481 138.374633789 47.183098 -2.0 0.1000006
1488 138.374633789 50.0 -2.0 0.20000064
1487 138.374633789 50.0 -1.3333334 0.20000064
976 138.374633789 25.352112 0.6666667 3.2166892e-07
977 138.374633789 24.647888 2.0 3.1273368e-07
984 138.374633789 29.577465 1.3333334 0.100000374
983 138.374633789 29.577465 2.0 0.100000374
1228 138.445037842 40.84507 2.0 5.1824435e-07
1229 138.445037842 40.84507 1.3333334 5.1824435e-07
1236 138.445037842 39.43662 0.6666667 5.0037386e-07
1235 138.445037842 39.43662 1.3333334 5.0037386e-07
724 138.445037842 23.943663 2.0 0.2000003
725 138.445037842 23.943663 1.3333334 0.2000003
732 138.445037842 22.535212 0.6666667 0.20000029
731 138.445037842 22.535212 1.3333334 0.20000029
1221 138.263015747 42.957745 0.6666667 5.450501e-07
1222 138.263015747 42.25352 2.0 5.3611484e-07
1229 138.263015747 40.84507 1.3333334 5.1824435e-07
1228 138.263015747 40.84507 2.0 5.1824435e-07
717 138.263015747 19.71831 1.3333334 0.100000255
718 138.263015747 19.71831 0.6666667 0.100000255
725 138.263015747 23.943663 1.3333334 0.2000003
724 138.263015747 23.943663 2.0 0.2000003
1473 138.262924194 47.887325 1.3333334 0.100000605
1474 138.262924194 47.887325 0.6666667 0.100000605
1481 138.262924194 47.183098 -2.0 0.1000006
1480 138.262924194 47.183098 -1.3333334 0.1000006
969 138.262924194 26.760563 1.3333334 3.395394e-07
970 138.262924194 26.760563 0.6666667 3.395394e-07
977 138.262924194 24.647888 2.0 3.1273368e-07
976 138.262924194 25.352112 0.6666667 3.2166892e-07
1214 138.386642456 38.028168 -2.0 0.20000048
1215 138.386642456 37.323944 0.0 0.20000048
1222 138.386642456 42.25352 2.0 5.3611484e-07
1221 138.386642456 42.957745 0.6666667 5.450501e-07
710 138.386642456 21.12676 2.0 0.10000027
711 138.386642456 21.12676 1.3333334 0.10000027
718 138.386642456 19.71831 0.6666667 0.100000255
717 138.386642456 19.71831 1.3333334 0.100000255
967 138.38671875 27.464788 0.6666667 3.4847466e-07
968 138.38671875 26.760563 2.0 3.395394e-07
975 138.38671875 25.352112 1.3333334 3.2166892e-07
974 138.38671875 25.352112 2.0 3.2166892e-07
463 138.38671875 21.12676 -1.3333334 0.20000027
464 138.38671875 21.12676 -2.0 0.20000027
471 138.38671875 18.309858 -1.3333334 0.20000024
470 138.38671875 19.014084 -2.0 0.20000024
703 138.319274902 23.239437 0.6666667 0.1000003
704 138.319274902 22.535212 2.0 0.100000285
711 138.319274902 21.12676 1.3333334 0.10000027
710 138.319274902 21.12676 2.0 0.10000027
199 138.319274902 5.633803 0.0 0.20000008
200 138.319274902 5.633803 -0.6666667 0.20000008
207 138.319274902 2.8169014 0.0 0.20000003
206 138.319274902 3.5211267 -0.6666667 0.20000005
983 138.319198608 29.577465 2.0 0.100000374
984 138.319198608 29.577465 1.3333334 0.100000374
991 138.319198608 28.169014 0.6666667 0.10000036
990 138.319198608 28.169014 1.3333334 0.10000036
479 138.319198608 15.492958 -1.3333334 0.2000002
480 138.319198608 15.492958 -2.0 0.2000002
487 138.319198608 12.676056 -1.3333334 0.20000017
486 138.319198608 13.380281 -2.0 0.20000017
1207 138.317520142 38.732395 0.0 0.2000005
1208 138.317520142 38.732395 -0.6666667 0.2000005
1215 138.317520142 37.323944 0.0 0.20000048
1214 138.317520142 38.028168 -2.0 0.20000048
703 138.317520142 23.239437 0.6666667 0.1000003
704 138.317520142 22.535212 2.0 0.100000285
711 138.317520142 21.12676 1.3333334 0.10000027
710 138.317520142 21.12676 2.0 0.10000027
1487 138.317459106 50.0 -1.3333334 0.20000064
1488 138.317459106 50.0 -2.0 0.20000064
1495 138.317459106 49.295776 -2.0 0.20000063
1494 138.317459106 49.295776 -1.3333334 0.20000063
983 138.317459106 29.577465 2.0 0.100000374
984 138.317459106 29.577465 1.3333334 0.100000374
991 138.317459106 28.169014 0.6666667 0.10000036
990 138.317459106 28.169014 1.3333334 0.10000036
1208 138.308868408 38.732395 -0.6666667 0.2000005
1209 138.308868408 38.732395 -1.3333334 0.2000005
1216 138.308868408 37.323944 -0.6666667 0.20000048
1215 138.308868408 37.323944 0.0 0.20000048
704 138.308868408 22.535212 2.0 0.100000285
705 138.308868408 22.535212 1.3333334 0.100000285
712 138.308868408 21.12676 0.6666667 0.10000027
711 138.308868408 21.12676 1.3333334 0.10000027
974 138.308776855 25.352112 2.0 3.2166892e-07
975 138.308776855 25.352112 1.3333334 3.2166892e-07
982 138.308776855 30.28169 0.6666667 0.10000039
981 138.308776855 30.28169 1.3333334 0.10000039
470 138.308776855 19.014084 -2.0 0.20000024
471 138.308776855 18.309858 -1.3333334 0.20000024
478 138.308776855 16.197184 -2.0 0.20000021
477 138.308776855 16.197184 -1.3333334 0.20000021
647 138.343490601 18.309858 0.6666667 0.20000024
648 138.343490601 17.605635 2.0 0.20000023
655 138.343490601 16.197184 1.3333334 0.20000021
654 138.343490601 16.197184 2.0 0.20000021
143 138.343490601 0.0 0.0 0.0
144 138.343490601 0.0 -0.6666667 0.0
151 138.343490601 9.859155 0.0 0.10000013
150 138.343490601 10.56338 -0.6666667 0.100000136
1151 138.343490601 42.25352 0.0 0.10000054
1152 138.343490601 42.25352 -0.6666667 0.10000054
1159 138.343490601 40.84507 0.0 0.100000516
1158 138.343490601 41.549297 -2.0 0.10000053
647 138.343490601 18.309858 0.6666667 0.20000024
648 138.343490601 17.605635 2.0 0.20000023
655 138.343490601 16.197184 1.3333334 0.20000021
654 138.343490601 16.197184 2.0 0.20000021
990 138.343551636 28.169014 1.3333334 0.10000036
991 138.343551636 28.169014 0.6666667 0.10000036
998 138.343551636 26.056337 2.0 0.10000033
997 138.343551636 26.760563 0.6666667 0.100000344
486 138.343551636 13.380281 -2.0 0.20000017
487 138.343551636 12.676056 -1.3333334 0.20000017
494 138.343551636 21.830986 0.0 2.769927e-07
493 138.343551636 22.535212 -0.6666667 2.8592794e-07
1144 138.344406128 37.323944 -2.0 4.7356812e-07
1145 138.344406128 36.619717 -1.3333334 4.6463285e-07
1152 138.344406128 42.25352 -0.6666667 0.10000054
1151 138.344406128 42.25352 0.0 0.10000054
640 138.344406128 13.380281 2.0 0.10000017
641 138.344406128 13.380281 1.3333334 0.10000017
648 138.344406128 17.605635 2.0 0.20000023
647 138.344406128 18.309858 0.6666667 0.20000024
1494 138.344497681 49.295776 -1.3333334 0.20000063
1495 138.344497681 49.295776 -2.0 0.20000063
1502 138.344497681 48.59155 -2.0 0.20000061
1501 138.344497681 48.59155 -1.3333334 0.20000061
990 138.344497681 28.169014 1.3333334 0.10000036
991 138.344497681 28.169014 0.6666667 0.10000036
998 138.344497681 26.056337 2.0 0.10000033
997 138.344497681 26.760563 0.6666667 0.100000344
701 138.35055542 23.239437 2.0 0.1000003
702 138.35055542 23.239437 1.3333334 0.1000003
709 138.35055542 21.830986 0.6666667 0.10000028
708 138.35055542 21.830986 1.3333334 0.10000028
197 138.35055542 6.338028 0.0 0.20000008
198 138.35055542 6.338028 -0.6666667 0.20000008
205 138.35055542 3.5211267 0.0 0.20000005
204 138.35055542 4.2253523 -0.6666667 0.20000006
981 138.350646973 30.28169 1.3333334 0.10000039
982 138.350646973 30.28169 0.6666667 0.10000039
989 138.350646973 28.169014 2.0 0.10000036
988 138.350646973 28.87324 0.6666667 0.10000037
477 138.350646973 16.197184 -1.3333334 0.20000021
478 138.350646973 16.197184 -2.0 0.20000021
485 138.350646973 13.380281 -1.3333334 0.20000017
484 138.350646973 14.084507 -2.0 0.20000018
1157 138.340988159 41.549297 -1.3333334 0.10000053
1158 138.340988159 41.549297 -2.0 0.10000053
1165 138.340988159 40.140846 -1.3333334 0.10000051
1164 138.340988159 40.140846 -0.6666667 0.10000051
653 138.340988159 16.90141 0.6666667 0.20000021
654 138.340988159 16.197184 2.0 0.20000021
661 138.340988159 14.788733 1.3333334 0.2000002
660 138.340988159 14.788733 2.0 0.2000002
654 138.340988159 16.197184 2.0 0.20000021
655 138.340988159 16.197184 1.3333334 0.20000021
662 138.340988159 14.788733 0.6666667 0.2000002
661 138.340988159 14.788733 1.3333334 0.2000002
150 138.340988159 10.56338 -0.6666667 0.100000136
151 138.340988159 9.859155 0.0 0.10000013
158 138.340988159 7.746479 -0.6666667 0.1000001
157 138.340988159 7.746479 0.0 0.1000001
997 138.340911865 26.760563 0.6666667 0.100000344
998 138.340911865 26.056337 2.0 0.10000033
1005 138.340911865 30.28169 2.0 0.20000039
1004 138.340911865 24.647888 2.0 0.100000314
493 138.340911865 22.535212 -0.6666667 2.8592794e-07
494 138.340911865 21.830986 0.0 2.769927e-07
501 138.340911865 19.71831 -0.6666667 2.5018693e-07
500 138.340911865 19.71831 0.0 2.5018693e-07
1158 138.340744019 41.549297 -2.0 0.10000053
1159 138.340744019 40.84507 0.0 0.100000516
1166 138.340744019 40.140846 -2.0 0.10000051
1165 138.340744019 40.140846 -1.3333334 0.10000051
654 138.340744019 16.197184 2.0 0.20000021
655 138.340744019 16.197184 1.3333334 0.20000021
662 138.340744019 14.788733 0.6666667 0.2000002
661 138.340744019 14.788733 1.3333334 0.2000002
1501 138.340667725 48.59155 -1.3333334 0.20000061
1502 138.340667725 48.59155 -2.0 0.20000061
1509 138.340667725 47.887325 -2.0 0.20000061
1508 138.340667725 47.887325 -1.3333334 0.20000061
997 138.340667725 26.760563 0.6666667 0.100000344
998 138.340667725 26.056337 2.0 0.10000033
1005 138.340667725 30.28169 2.0 0.20000039
1004 138.340667725 24.647888 2.0 0.100000314
646 138.336608887 18.309858 1.3333334 0.20000024
647 138.336608887 18.309858 0.6666667 0.20000024
654 138.336608887 16.197184 2.0 0.20000021
653 138.336608887 16.90141 0.6666667 0.20000021
142 138.336608887 0.70422536 -0.6666667 8.935248e-09
143 138.336608887 0.0 0.0 0.0
150 138.336608887 10.56338 -0.6666667 0.100000136
149 138.336608887 10.56338 0.0 0.100000136
988 138.336502075 28.87324 0.6666667 0.10000037
989 138.336502075 28.169014 2.0 0.10000036
996 138.336502075 26.760563 1.3333334 0.100000344
995 138.336502075 26.760563 2.0 0.100000344
484 138.336502075 14.084507 -2.0 0.20000018
485 138.336502075 13.380281 -1.3333334 0.20000017
492 138.336502075 22.535212 0.0 2.8592794e-07
491 138.336502075 23.239437 -0.6666667 2.9486318e-07
1156 138.326919556 41.549297 -0.6666667 0.10000053
1157 138.326919556 41.549297 -1.3333334 0.10000053
1164 138.326919556 40.140846 -0.6666667 0.10000051
1163 138.326919556 40.140846 0.0 0.10000051
652 138.326919556 16.90141 1.3333334 0.20000021
653 138.326919556 16.90141 0.6666667 0.20000021
660 138.326919556 14.788733 2.0 0.2000002
659 138.326919556 15.492958 0.6666667 0.2000002
1389 138.327011108 45.774647 1.3333334 0.20000058
1390 138.327011108 45.774647 0.6666667 0.20000058
1397 138.327011108 45.070423 0.6666667 0.20000057
1396 138.327011108 45.070423 1.3333334 0.20000057
885 138.327011108 26.056337 -0.6666667 3.3060417e-07
886 138.327011108 25.352112 0.0 3.2166892e-07
893 138.327011108 35.915493 -0.6666667 0.100000456
892 138.327011108 35.915493 0.0 0.100000456
645 138.326644897 18.309858 2.0 0.20000024
646 138.326644897 18.309858 1.3333334 0.20000024
653 138.326644897 16.90141 0.6666667 0.20000021
652 138.326644897 16.90141 1.3333334 0.20000021
141 138.326644897 0.70422536 0.0 8.935248e-09
142 138.326644897 0.70422536 -0.6666667 8.935248e-09
149 138.326644897 10.56338 0.0 0.100000136
148 138.326644897 11.267606 -0.6666667 0.10000014
1382 138.32673645 46.478874 1.3333334 0.2000006
1383 138.32673645 46.478874 0.6666667 0.2000006
1390 138.32673645 45.774647 0.6666667 0.20000058
1389 138.32673645 45.774647 1.3333334 0.20000058
878 138.32673645 28.169014 0.0 3.574099e-07
879 138.32673645 28.169014 -0.6666667 3.574099e-07
886 138.32673645 25.352112 0.0 3.2166892e-07
885 138.32673645 26.056337 -0.6666667 3.3060417e-07
1149 138.329330444 42.957745 -1.3333334 0.100000545
1150 138.329330444 42.957745 -2.0 0.100000545
1157 138.329330444 41.549297 -1.3333334 0.10000053
1156 138.329330444 41.549297 -0.6666667 0.10000053
645 138.329330444 18.309858 2.0 0.20000024
646 138.329330444 18.309858 1.3333334 0.20000024
653 138.329330444 16.90141 0.6666667 0.20000021
652 138.329330444 16.90141 1.3333334 0.20000021
995 138.329421997 26.760563 2.0 0.100000344
996 138.329421997 26.760563 1.3333334 0.100000344
1003 138.329421997 25.352112 0.6666667 0.10000032
1002 138.329421997 25.352112 1.3333334 0.10000032
491 138.329421997 23.239437 -0.6666667 2.9486318e-07
492 138.329421997 22.535212 0.0 2.8592794e-07
499 138.329421997 20.422535 -0.6666667 2.5912217e-07
498 138.329421997 20.422535 0.0 2.5912217e-07
1163 138.353317261 40.140846 0.0 0.10000051
1164 138.353317261 40.140846 -0.6666667 0.10000051
1171 138.353317261 38.732395 0.0 0.10000049
1170 138.353317261 39.43662 -2.0 0.1000005
659 138.353317261 15.492958 0.6666667 0.2000002
660 138.353317261 14.788733 2.0 0.2000002
667 138.353317261 13.380281 1.3333334 0.20000017
666 138.353317261 13.380281 2.0 0.20000017
884 138.353225708 26.056337 0.0 3.3060417e-07
885 138.353225708 26.056337 -0.6666667 3.3060417e-07
892 138.353225708 35.915493 0.0 0.100000456
891 138.353225708 36.619717 -0.6666667 0.10000046
380 138.353225708 7.0422535 2.0 0.20000009
381 138.353225708 7.0422535 1.3333334 0.20000009
388 138.353225708 22.535212 -2.0 2.8592794e-07
387 138.353225708 22.535212 -1.3333334 2.8592794e-07
660 138.354003906 14.788733 2.0 0.2000002
661 138.354003906 14.788733 1.3333334 0.2000002
668 138.354003906 13.380281 0.6666667 0.20000017
667 138.354003906 13.380281 1.3333334 0.20000017
156 138.354003906 8.450705 -0.6666667 0.100000106
157 138.354003906 7.746479 0.0 0.1000001
164 138.354003906 5.633803 -0.6666667 0.100000076
163 138.354003906 5.633803 0.0 0.100000076
1388 138.353912354 45.774647 2.0 0.20000058
1389 138.353912354 45.774647 1.3333334 0.20000058
1396 138.353912354 45.070423 1.3333334 0.20000057
1395 138.353912354 45.070423 2.0 0.20000057
884 138.353912354 26.056337 0.0 3.3060417e-07
885 138.353912354 26.056337 -0.6666667 3.3060417e-07
892 138.353912354 35.915493 0.0 0.100000456
891 138.353912354 36.619717 -0.6666667 0.10000046
1164 138.352478027 40.140846 -0.6666667 0.10000051
1165 138.352478027 40.140846 -1.3333334 0.10000051
1172 138.352478027 38.732395 -0.6666667 0.10000049
1171 138.352478027 38.732395 0.0 0.10000049
660 138.352478027 14.788733 2.0 0.2000002
661 138.352478027 14.788733 1.3333334 0.2000002
668 138.352478027 13.380281 0.6666667 0.20000017
667 138.352478027 13.380281 1.3333334 0.20000017
892 138.352355957 35.915493 0.0 0.100000456
893 138.352355957 35.915493 -0.6666667 0.100000456
900 138.352355957 33.09859 0.0 0.10000042
899 138.352355957 33.80282 -0.6666667 0.100000426
388 138.352355957 22.535212 -2.0 2.8592794e-07
389 138.352355957 21.830986 -1.3333334 2.769927e-07
396 138.352355957 19.71831 -2.0 2.5018693e-07
395 138.352355957 19.71831 -1.3333334 2.5018693e-07
667 138.317871094 13.380281 1.3333334 0.20000017
668 138.317871094 13.380281 0.6666667 0.20000017
675 138.317871094 23.239437 2.0 2.9486318e-07
674 138.317871094 23.943663 0.0 3.0379843e-07
163 138.317871094 5.633803 0.0 0.100000076
164 138.317871094 5.633803 -0.6666667 0.100000076
171 138.317871094 2.8169014 0.0 0.10000004
170 138.317871094 3.5211267 -0.6666667 0.100000046
898 138.317977905 33.80282 0.0 0.100000426
899 138.317977905 33.80282 -0.6666667 0.100000426
906 138.317977905 30.985916 0.0 0.1000004
905 138.317977905 31.690142 -0.6666667 0.100000404
394 138.317977905 20.422535 -2.0 2.5912217e-07
395 138.317977905 19.71831 -1.3333334 2.5018693e-07
402 138.317977905 17.605635 -2.0 2.233812e-07
401 138.317977905 17.605635 -1.3333334 2.233812e-07
1402 138.317962646 44.366196 2.0 0.20000057
1403 138.317962646 44.366196 1.3333334 0.20000057
1410 138.317962646 43.661972 1.3333334 0.20000055
1409 138.317962646 43.661972 2.0 0.20000055
898 138.317962646 33.80282 0.0 0.100000426
899 138.317962646 33.80282 -0.6666667 0.100000426
906 138.317962646 30.985916 0.0 0.1000004
905 138.317962646 31.690142 -0.6666667 0.100000404
1171 138.316894531 38.732395 0.0 0.10000049
1172 138.316894531 38.732395 -0.6666667 0.10000049
1179 138.316894531 37.323944 0.0 0.10000047
1178 138.316894531 38.028168 -2.0 0.100000486
667 138.316894531 13.380281 1.3333334 0.20000017
668 138.316894531 13.380281 0.6666667 0.20000017
675 138.316894531 23.239437 2.0 2.9486318e-07
674 138.316894531 23.943663 0.0 3.0379843e-07
899 138.317016602 33.80282 -0.6666667 0.100000426
900 138.317016602 33.09859 0.0 0.10000042
907 138.317016602 30.985916 -0.6666667 0.1000004
906 138.317016602 30.985916 0.0 0.1000004
395 138.317016602 19.71831 -1.3333334 2.5018693e-07
396 138.317016602 19.71831 -2.0 2.5018693e-07
403 138.317016602 16.90141 -1.3333334 2.1444595e-07
402 138.317016602 17.605635 -2.0 2.233812e-07
668 138.317581177 13.380281 0.6666667 0.20000017
669 138.317581177 12.676056 2.0 0.20000017
676 138.317581177 23.239437 1.3333334 2.9486318e-07
675 138.317581177 23.239437 2.0 2.9486318e-07
164 138.317581177 5.633803 -0.6666667 0.100000076
165 138.317581177 4.9295774 0.0 0.10000006
172 138.317581177 2.8169014 -0.6666667 0.10000004
171 138.317581177 2.8169014 0.0 0.10000004
900 138.317718506 33.09859 0.0 0.10000042
901 138.317718506 33.09859 -0.6666667 0.10000042
908 138.317718506 30.28169 0.0 0.10000039
907 138.317718506 30.985916 -0.6666667 0.1000004
396 138.317718506 19.71831 -2.0 2.5018693e-07
397 138.317718506 19.014084 -1.3333334 2.4125168e-07
404 138.317718506 16.90141 -2.0 2.1444595e-07
403 138.317718506 16.90141 -1.3333334 2.1444595e-07
960 138.445098877 28.87324 1.3333334 3.6634515e-07
961 138.445098877 28.87324 0.6666667 3.6634515e-07
968 138.445098877 26.760563 2.0 3.395394e-07
967 138.445098877 27.464788 0.6666667 3.4847466e-07
456 138.445098877 23.943663 -2.0 0.2000003
457 138.445098877 23.239437 -1.3333334 0.2000003
464 138.445098877 21.12676 -2.0 0.20000027
463 138.445098877 21.12676 -1.3333334 0.20000027
1464 138.423171997 49.295776 -2.0 0.10000063
1465 138.423171997 48.59155 2.0 0.10000062
1472 138.423171997 47.887325 2.0 0.100000605
1471 138.423171997 48.59155 -2.0 0.10000062
960 138.423171997 28.87324 1.3333334 3.6634515e-07
961 138.423171997 28.87324 0.6666667 3.6634515e-07
968 138.423171997 26.760563 2.0 3.395394e-07
967 138.423171997 27.464788 0.6666667 3.4847466e-07
729 138.19039917 23.239437 0.6666667 0.2000003
730 138.19039917 22.535212 2.0 0.20000029
737 138.19039917 21.12676 1.3333334 0.20000027
736 138.19039917 21.12676 2.0 0.20000027
225 138.19039917 4.2253523 2.0 5.361149e-08
226 138.19039917 4.2253523 1.3333334 5.361149e-08
233 138.19039917 2.8169014 0.6666667 3.5740992e-08
232 138.19039917 2.8169014 1.3333334 3.5740992e-08
953 138.190322876 30.28169 2.0 3.8421567e-07
954 138.190322876 30.28169 1.3333334 3.8421567e-07
961 138.190322876 28.87324 0.6666667 3.6634515e-07
960 138.190322876 28.87324 1.3333334 3.6634515e-07
449 138.190322876 13.380281 -1.3333334 0.10000017
450 138.190322876 13.380281 -2.0 0.10000017
457 138.190322876 23.239437 -1.3333334 0.2000003
456 138.190322876 23.943663 -2.0 0.2000003
1233 138.219223022 40.140846 0.6666667 5.0930913e-07
1234 138.219223022 39.43662 2.0 5.0037386e-07
1241 138.219223022 38.028168 1.3333334 4.8250337e-07
1240 138.219223022 38.028168 2.0 4.8250337e-07
729 138.219223022 23.239437 0.6666667 0.2000003
730 138.219223022 22.535212 2.0 0.20000029
737 138.219223022 21.12676 1.3333334 0.20000027
736 138.219223022 21.12676 2.0 0.20000027
1457 138.219161987 50.0 -2.0 0.100000635
1458 138.219161987 49.295776 2.0 0.10000063
1465 138.219161987 48.59155 2.0 0.10000062
1464 138.219161987 49.295776 -2.0 0.10000063
953 138.219161987 30.28169 2.0 3.8421567e-07
954 138.219161987 30.28169 1.3333334 3.8421567e-07
961 138.219161987 28.87324 0.6666667 3.6634515e-07
960 138.219161987 28.87324 1.3333334 3.6634515e-07
939 138.226211548 30.28169 0.0 0.20000039
940 138.226211548 30.28169 -0.6666667 0.20000039
947 138.226211548 27.464788 0.0 0.20000035
946 138.226211548 28.169014 -0.6666667 0.20000036
435 138.226211548 18.309858 -1.3333334 0.10000023
436 138.226211548 18.309858 -2.0 0.10000023
443 138.226211548 15.492958 -1.3333334 0.100000195
442 138.226211548 16.197184 -2.0 0.10000021
736 138.535934448 21.12676 2.0 0.20000027
737 138.535934448 21.12676 1.3333334 0.20000027
744 138.535934448 19.71831 0.6666667 0.20000026
743 138.535934448 19.71831 1.3333334 0.20000026
232 138.535934448 2.8169014 1.3333334 3.5740992e-08
233 138.535934448 2.8169014 0.6666667 3.5740992e-08
240 138.535934448 0.70422536 2.0 8.935248e-09
239 138.535934448 1.4084507 0.6666667 1.7870496e-08
1240 138.497894287 38.028168 2.0 4.8250337e-07
1241 138.497894287 38.028168 1.3333334 4.8250337e-07
1248 138.497894287 36.619717 0.6666667 4.6463285e-07
1247 138.497894287 36.619717 1.3333334 4.6463285e-07
736 138.497894287 21.12676 2.0 0.20000027
737 138.497894287 21.12676 1.3333334 0.20000027
744 138.497894287 19.71831 0.6666667 0.20000026
743 138.497894287 19.71831 1.3333334 0.20000026
954 138.536010742 30.28169 1.3333334 3.8421567e-07
955 138.536010742 30.28169 0.6666667 3.8421567e-07
962 138.536010742 28.169014 2.0 3.574099e-07
961 138.536010742 28.87324 0.6666667 3.6634515e-07
450 138.536010742 13.380281 -2.0 0.10000017
451 138.536010742 12.676056 -1.3333334 0.100000165
458 138.536010742 23.239437 -2.0 0.2000003
457 138.536010742 23.239437 -1.3333334 0.2000003
1458 138.497970581 49.295776 2.0 0.10000063
1459 138.497970581 49.295776 1.3333334 0.10000063
1466 138.497970581 48.59155 1.3333334 0.10000062
1465 138.497970581 48.59155 2.0 0.10000062
954 138.497970581 30.28169 1.3333334 3.8421567e-07
955 138.497970581 30.28169 0.6666667 3.8421567e-07
962 138.497970581 28.169014 2.0 3.574099e-07
961 138.497970581 28.87324 0.6666667 3.6634515e-07
737 138.489135742 21.12676 1.3333334 0.20000027
738 138.489135742 21.12676 0.6666667 0.20000027
745 138.489135742 19.014084 2.0 0.20000024
744 138.489135742 19.71831 0.6666667 0.20000026
233 138.489135742 2.8169014 0.6666667 3.5740992e-08
234 138.489135742 2.1126761 2.0 2.6805743e-08
241 138.489135742 0.70422536 1.3333334 8.935248e-09
240 138.489135742 0.70422536 2.0 8.935248e-09
955 138.489196777 30.28169 0.6666667 3.8421567e-07
956 138.489196777 29.577465 2.0 3.7528042e-07
963 138.489196777 28.169014 1.3333334 3.574099e-07
962 138.489196777 28.169014 2.0 3.574099e-07
451 138.489196777 12.676056 -1.3333334 0.100000165
452 138.489196777 12.676056 -2.0 0.100000165
459 138.489196777 22.535212 -1.3333334 0.20000029
458 138.489196777 23.239437 -2.0 0.2000003
1242 138.079406738 38.028168 0.6666667 4.8250337e-07
1243 138.079406738 37.323944 2.0 4.7356812e-07
1250 138.079406738 42.957745 1.3333334 0.100000545
1249 138.079406738 42.957745 2.0 0.100000545
738 138.079406738 21.12676 0.6666667 0.20000027
739 138.079406738 20.422535 2.0 0.20000026
746 138.079406738 19.014084 1.3333334 0.20000024
745 138.079406738 19.014084 2.0 0.20000024
743 138.128723145 19.71831 1.3333334 0.20000026
744 138.128723145 19.71831 0.6666667 0.20000026
751 138.128723145 35.21127 -2.0 4.467624e-07
750 138.128723145 35.21127 -1.3333334 4.467624e-07
239 138.128723145 1.4084507 0.6666667 1.7870496e-08
240 138.128723145 0.70422536 2.0 8.935248e-09
247 138.128723145 6.338028 1.3333334 0.10000008
246 138.128723145 6.338028 2.0 0.10000008
1451 138.079345703 50.0 2.0 0.100000635
1452 138.079345703 50.0 1.3333334 0.100000635
1459 138.079345703 49.295776 1.3333334 0.10000063
1458 138.079345703 49.295776 2.0 0.10000063
947 138.079345703 27.464788 0.0 0.20000035
948 138.079345703 26.760563 0.0 0.20000035
955 138.079345703 30.28169 0.6666667 3.8421567e-07
954 138.079345703 30.28169 1.3333334 3.8421567e-07
1444 138.128662109 47.183098 2.0 5.986616e-07
1445 138.128662109 47.183098 1.3333334 5.986616e-07
1452 138.128662109 50.0 1.3333334 0.100000635
1451 138.128662109 50.0 2.0 0.100000635
940 138.128662109 30.28169 -0.6666667 0.20000039
941 138.128662109 29.577465 0.0 0.20000038
948 138.128662109 26.760563 0.0 0.20000035
947 138.128662109 27.464788 0.0 0.20000035
1247 138.139312744 36.619717 1.3333334 4.6463285e-07
1248 138.139312744 36.619717 0.6666667 4.6463285e-07
1255 138.139312744 41.549297 2.0 0.10000053
1254 138.139312744 42.25352 0.6666667 0.10000054
743 138.139312744 19.71831 1.3333334 0.20000026
744 138.139312744 19.71831 0.6666667 0.20000026
751 138.139312744 35.21127 -2.0 4.467624e-07
750 138.139312744 35.21127 -1.3333334 4.467624e-07
948 138.139266968 26.760563 0.0 0.20000035
949 138.139266968 26.056337 0.0 0.20000033
956 138.139266968 29.577465 2.0 3.7528042e-07
955 138.139266968 30.28169 0.6666667 3.8421567e-07
444 138.139266968 15.492958 -2.0 0.100000195
445 138.139266968 14.788733 -1.3333334 0.10000019
452 138.139266968 12.676056 -2.0 0.100000165
451 138.139266968 12.676056 -1.3333334 0.100000165
1249 138.67300415 42.957745 2.0 0.100000545
1250 138.67300415 42.957745 1.3333334 0.100000545
1257 138.67300415 41.549297 0.6666667 0.10000053
1256 138.67300415 41.549297 1.3333334 0.10000053
745 138.67300415 19.014084 2.0 0.20000024
746 138.67300415 19.014084 1.3333334 0.20000024
753 138.67300415 34.507042 -2.0 4.3782714e-07
752 138.67300415 34.507042 -1.3333334 4.3782714e-07
750 138.608825684 35.21127 -1.3333334 4.467624e-07
751 138.608825684 35.21127 -2.0 4.467624e-07
758 138.608825684 32.394367 -1.3333334 4.110214e-07
757 138.608825684 33.09859 -2.0 4.1995665e-07
246 138.608825684 6.338028 2.0 0.10000008
247 138.608825684 6.338028 1.3333334 0.10000008
254 138.608825684 4.9295774 0.6666667 0.10000006
253 138.608825684 4.9295774 1.3333334 0.10000006
886 138.673080444 25.352112 0.0 3.2166892e-07
887 138.673080444 25.352112 -0.6666667 3.2166892e-07
894 138.673080444 35.21127 0.0 0.10000045
893 138.673080444 35.915493 -0.6666667 0.100000456
382 138.673080444 7.0422535 0.6666667 0.20000009
383 138.673080444 23.943663 -1.3333334 3.0379843e-07
390 138.673080444 21.830986 -2.0 2.769927e-07
389 138.673080444 21.830986 -1.3333334 2.769927e-07
1390 138.60887146 45.774647 0.6666667 0.20000058
1391 138.60887146 45.774647 0.0 0.20000058
1398 138.60887146 45.070423 0.0 0.20000057
1397 138.60887146 45.070423 0.6666667 0.20000057
886 138.60887146 25.352112 0.0 3.2166892e-07
887 138.60887146 25.352112 -0.6666667 3.2166892e-07
894 138.60887146 35.21127 0.0 0.10000045
893 138.60887146 35.915493 -0.6666667 0.100000456
1254 138.596603394 42.25352 0.6666667 0.10000054
1255 138.596603394 41.549297 2.0 0.10000053
1262 138.596603394 40.140846 1.3333334 0.10000051
1261 138.596603394 40.140846 2.0 0.10000051
750 138.596603394 35.21127 -1.3333334 4.467624e-07
751 138.596603394 35.21127 -2.0 4.467624e-07
758 138.596603394 32.394367 -1.3333334 4.110214e-07
757 138.596603394 33.09859 -2.0 4.1995665e-07
887 138.596664429 25.352112 -0.6666667 3.2166892e-07
888 138.596664429 24.647888 0.0 3.1273368e-07
895 138.596664429 35.21127 -0.6666667 0.10000045
894 138.596664429 35.21127 0.0 0.10000045
383 138.596664429 23.943663 -1.3333334 3.0379843e-07
384 138.596664429 23.943663 -2.0 3.0379843e-07
391 138.596664429 21.12676 -1.3333334 2.6805742e-07
390 138.596664429 21.830986 -2.0 2.769927e-07
1255 137.91506958 41.549297 2.0 0.10000053
1256 137.91506958 41.549297 1.3333334 0.10000053
1263 137.91506958 40.140846 0.6666667 0.10000051
1262 137.91506958 40.140846 1.3333334 0.10000051
751 137.91506958 35.21127 -2.0 4.467624e-07
752 137.91506958 34.507042 -1.3333334 4.3782714e-07
759 137.91506958 32.394367 -2.0 4.110214e-07
758 137.91506958 32.394367 -1.3333334 4.110214e-07
752 137.996917725 34.507042 -1.3333334 4.3782714e-07
753 137.996917725 34.507042 -2.0 4.3782714e-07
760 137.996917725 31.690142 -1.3333334 4.0208616e-07
759 137.996917725 32.394367 -2.0 4.110214e-07
248 137.996917725 6.338028 0.6666667 0.10000008
249 137.996917725 5.633803 2.0 0.100000076
256 137.996917725 4.2253523 1.3333334 0.10000005
255 137.996917725 4.2253523 2.0 0.10000005
1398 137.914993286 45.070423 0.0 0.20000057
1399 137.914993286 45.070423 -0.6666667 0.20000057
1406 137.914993286 44.366196 -0.6666667 0.20000057
1405 137.914993286 44.366196 0.0 0.20000057
894 137.914993286 35.21127 0.0 0.10000045
895 137.914993286 35.21127 -0.6666667 0.10000045
902 137.914993286 32.394367 0.0 0.10000041
901 137.914993286 33.09859 -0.6666667 0.10000042
1404 137.996841431 44.366196 0.6666667 0.20000057
1405 137.996841431 44.366196 0.0 0.20000057
1412 137.996841431 43.661972 0.0 0.20000055
1411 137.996841431 43.661972 0.6666667 0.20000055
900 137.996841431 33.09859 0.0 0.10000042
901 137.996841431 33.09859 -0.6666667 0.10000042
908 137.996841431 30.28169 0.0 0.10000039
907 137.996841431 30.985916 -0.6666667 0.1000004
1256 138.009841919 41.549297 1.3333334 0.10000053
1257 138.009841919 41.549297 0.6666667 0.10000053
1264 138.009841919 39.43662 2.0 0.1000005
1263 138.009841919 40.140846 0.6666667 0.10000051
752 138.009841919 34.507042 -1.3333334 4.3782714e-07
753 138.009841919 34.507042 -2.0 4.3782714e-07
760 138.009841919 31.690142 -1.3333334 4.0208616e-07
759 138.009841919 32.394367 -2.0 4.110214e-07
901 138.009796143 33.09859 -0.6666667 0.10000042
902 138.009796143 32.394367 0.0 0.10000041
909 138.009796143 30.28169 -0.6666667 0.10000039
908 138.009796143 30.28169 0.0 0.10000039
397 138.009796143 19.014084 -1.3333334 2.4125168e-07
398 138.009796143 19.014084 -2.0 2.4125168e-07
405 138.009796143 16.197184 -1.3333334 2.055107e-07
404 138.009796143 16.90141 -2.0 2.1444595e-07
641 138.87538147 13.380281 1.3333334 0.10000017
642 138.87538147 13.380281 0.6666667 0.10000017
649 138.87538147 17.605635 1.3333334 0.20000023
648 138.87538147 17.605635 2.0 0.20000023
137 138.87538147 2.1126761 0.0 2.6805743e-08
138 138.87538147 2.1126761 -0.6666667 2.6805743e-08
145 138.87538147 11.971831 0.0 0.10000015
144 138.87538147 0.0 -0.6666667 0.0
1146 138.767501831 36.619717 -2.0 4.6463285e-07
1147 138.767501831 42.957745 0.0 0.100000545
1154 138.767501831 42.25352 -2.0 0.10000054
1153 138.767501831 42.25352 -1.3333334 0.10000054
642 138.767501831 13.380281 0.6666667 0.10000017
643 138.767501831 12.676056 2.0 0.100000165
650 138.767501831 17.605635 0.6666667 0.20000023
649 138.767501831 17.605635 1.3333334 0.20000023
1412 138.875442505 43.661972 0.0 0.20000055
1413 138.875442505 43.661972 -0.6666667 0.20000055
1420 138.875442505 50.0 -0.6666667 6.3440257e-07
1419 138.875442505 50.0 -5.551115e-17 6.3440257e-07
908 138.875442505 30.28169 0.0 0.10000039
909 138.875442505 30.28169 -0.6666667 0.10000039
916 138.875442505 27.464788 0.0 0.10000035
915 138.875442505 28.169014 -0.6666667 0.10000036
914 138.767578125 28.169014 0.0 0.10000036
915 138.767578125 28.169014 -0.6666667 0.10000036
922 138.767578125 36.619717 0.0 0.20000046
921 138.767578125 25.352112 -0.6666667 0.10000032
410 138.767578125 14.788733 -2.0 1.876402e-07
411 138.767578125 14.084507 -1.3333334 1.7870495e-07
418 138.767578125 24.647888 -2.0 0.100000314
417 138.767578125 24.647888 -1.3333334 0.100000314
648 138.751800537 17.605635 2.0 0.20000023
649 138.751800537 17.605635 1.3333334 0.20000023
656 138.751800537 16.197184 0.6666667 0.20000021
655 138.751800537 16.197184 1.3333334 0.20000021
144 138.751800537 0.0 -0.6666667 0.0
145 138.751800537 11.971831 0.0 0.10000015
152 138.751800537 9.859155 -0.6666667 0.10000013
151 138.751800537 9.859155 0.0 0.10000013
1418 138.751876831 50.0 0.6666667 6.3440257e-07
1419 138.751876831 50.0 -5.551115e-17 6.3440257e-07
1426 138.751876831 49.295776 0.0 6.2546735e-07
1425 138.751876831 49.295776 0.6666667 6.2546735e-07
914 138.751876831 28.169014 0.0 0.10000036
915 138.751876831 28.169014 -0.6666667 0.10000036
922 138.751876831 36.619717 0.0 0.20000046
921 138.751876831 25.352112 -0.6666667 0.10000032
655 137.680908203 16.197184 1.3333334 0.20000021
656 137.680908203 16.197184 0.6666667 0.20000021
663 137.680908203 14.084507 2.0 0.20000018
662 137.680908203 14.788733 0.6666667 0.2000002
151 137.680908203 9.859155 0.0 0.10000013
152 137.680908203 9.859155 -0.6666667 0.10000013
159 137.680908203 7.0422535 0.0 0.10000009
158 137.680908203 7.746479 -0.6666667 0.1000001
1159 137.810333252 40.84507 0.0 0.100000516
1160 137.810333252 40.84507 -0.6666667 0.100000516
1167 137.810333252 39.43662 0.0 0.1000005
1166 137.810333252 40.140846 -2.0 0.10000051
655 137.810333252 16.197184 1.3333334 0.20000021
656 137.810333252 16.197184 0.6666667 0.20000021
663 137.810333252 14.084507 2.0 0.20000018
662 137.810333252 14.788733 0.6666667 0.2000002
1425 137.680847168 49.295776 0.6666667 6.2546735e-07
1426 137.680847168 49.295776 0.0 6.2546735e-07
1433 137.680847168 48.59155 0.0 6.165321e-07
1432 137.680847168 48.59155 0.6666667 6.165321e-07
921 137.680847168 25.352112 -0.6666667 0.10000032
922 137.680847168 36.619717 0.0 0.20000046
929 137.680847168 34.507042 -0.6666667 0.20000044
928 137.680847168 34.507042 0.0 0.20000044
922 137.810272217 36.619717 0.0 0.20000046
923 137.810272217 36.619717 -0.6666667 0.20000046
930 137.810272217 33.80282 0.0 0.20000044
929 137.810272217 34.507042 -0.6666667 0.20000044
418 137.810272217 24.647888 -2.0 0.100000314
419 137.810272217 23.943663 -1.3333334 0.10000031
426 137.810272217 21.830986 -2.0 0.10000028
425 137.810272217 21.830986 -1.3333334 0.10000028
656 137.818634033 16.197184 0.6666667 0.20000021
657 137.818634033 15.492958 2.0 0.2000002
664 137.818634033 14.084507 1.3333334 0.20000018
663 137.818634033 14.084507 2.0 0.20000018
152 137.818634033 9.859155 -0.6666667 0.10000013
153 137.818634033 9.154929 0.0 0.10000012
160 137.818634033 7.0422535 -0.6666667 0.10000009
159 137.818634033 7.0422535 0.0 0.10000009
1426 137.818572998 49.295776 0.0 6.2546735e-07
1427 137.818572998 49.295776 -0.6666667 6.2546735e-07
1434 137.818572998 48.59155 -0.6666667 6.165321e-07
1433 137.818572998 48.59155 0.0 6.165321e-07
922 137.818572998 36.619717 0.0 0.20000046
923 137.818572998 36.619717 -0.6666667 0.20000046
930 137.818572998 33.80282 0.0 0.20000044
929 137.818572998 34.507042 -0.6666667 0.20000044
663 139.172729492 14.084507 2.0 0.20000018
664 139.172729492 14.084507 1.3333334 0.20000018
671 139.172729492 23.943663 2.0 3.0379843e-07
670 139.172729492 12.676056 1.3333334 0.20000017
159 139.172729492 7.0422535 0.0 0.10000009
160 139.172729492 7.0422535 -0.6666667 0.10000009
167 139.172729492 4.2253523 0.0 0.10000005
166 139.172729492 4.9295774 -0.6666667 0.10000006
1167 138.986251831 39.43662 0.0 0.1000005
1168 138.986251831 39.43662 -0.6666667 0.1000005
1175 138.986251831 38.028168 0.0 0.100000486
1174 138.986251831 38.732395 -2.0 0.10000049
663 138.986251831 14.084507 2.0 0.20000018
664 138.986251831 14.084507 1.3333334 0.20000018
671 138.986251831 23.943663 2.0 3.0379843e-07
670 138.986251831 12.676056 1.3333334 0.20000017
1433 139.172790527 48.59155 0.0 6.165321e-07
1434 139.172790527 48.59155 -0.6666667 6.165321e-07
1441 139.172790527 47.887325 -0.6666667 6.0759686e-07
1440 139.172790527 47.887325 0.0 6.0759686e-07
929 139.172790527 34.507042 -0.6666667 0.20000044
930 139.172790527 33.80282 0.0 0.20000044
937 139.172790527 30.985916 0.0 0.20000039
936 139.172790527 31.690142 -0.6666667 0.2000004
935 138.986328125 31.690142 0.0 0.2000004
936 138.986328125 31.690142 -0.6666667 0.2000004
943 138.986328125 28.87324 0.0 0.20000038
942 138.986328125 29.577465 -0.6666667 0.20000038
431 138.986328125 19.71831 -1.3333334 0.100000255
432 138.986328125 19.71831 -2.0 0.100000255
439 138.986328125 16.90141 -1.3333334 0.10000022
438 138.986328125 17.605635 -2.0 0.100000225
669 138.965881348 12.676056 2.0 0.20000017
670 138.965881348 12.676056 1.3333334 0.20000017
677 138.965881348 23.239437 0.6666667 2.9486318e-07
676 138.965881348 23.239437 1.3333334 2.9486318e-07
165 138.965881348 4.9295774 0.0 0.10000006
166 138.965881348 4.9295774 -0.6666667 0.10000006
173 138.965881348 2.1126761 0.0 0.10000003
172 138.965881348 2.8169014 -0.6666667 0.10000004
1439 138.965942383 47.887325 0.6666667 6.0759686e-07
1440 138.965942383 47.887325 0.0 6.0759686e-07
1447 138.965942383 47.183098 0.0 5.986616e-07
1446 138.965942383 47.183098 0.6666667 5.986616e-07
935 138.965942383 31.690142 0.0 0.2000004
936 138.965942383 31.690142 -0.6666667 0.2000004
943 138.965942383 28.87324 0.0 0.20000038
942 138.965942383 29.577465 -0.6666667 0.20000038
677 137.363372803 23.239437 0.6666667 2.9486318e-07
678 137.363372803 22.535212 2.0 2.8592794e-07
685 137.363372803 21.12676 1.3333334 2.6805742e-07
684 137.363372803 21.12676 2.0 2.6805742e-07
173 137.363372803 2.1126761 0.0 0.10000003
174 137.363372803 2.1126761 -0.6666667 0.10000003
181 137.363372803 11.971831 0.0 0.20000015
180 137.363372803 -1.2688052e-09 -0.6666667 0.1
1181 137.554458618 37.323944 -1.3333334 0.10000047
1182 137.554458618 37.323944 -2.0 0.10000047
1189 137.554458618 42.25352 -1.3333334 0.20000054
1188 137.554458618 42.25352 -0.6666667 0.20000054
677 137.554458618 23.239437 0.6666667 2.9486318e-07
678 137.554458618 22.535212 2.0 2.8592794e-07
685 137.554458618 21.12676 1.3333334 2.6805742e-07
684 137.554458618 21.12676 2.0 2.6805742e-07
943 137.363327026 28.87324 0.0 0.20000038
944 137.363327026 28.87324 -0.6666667 0.20000038
951 137.363327026 25.352112 0.0 0.20000033
950 137.363327026 26.056337 -0.6666667 0.20000033
439 137.363327026 16.90141 -1.3333334 0.10000022
440 137.363327026 16.90141 -2.0 0.10000022
447 137.363327026 14.084507 -1.3333334 0.10000018
446 137.363327026 14.788733 -2.0 0.10000019
949 137.541137695 26.056337 0.0 0.20000033
950 137.541137695 26.056337 -0.6666667 0.20000033
957 137.541137695 29.577465 1.3333334 3.7528042e-07
956 137.541137695 29.577465 2.0 3.7528042e-07
445 137.541137695 14.788733 -1.3333334 0.10000019
446 137.541137695 14.788733 -2.0 0.10000019
453 137.541137695 24.647888 -1.3333334 0.20000032
452 137.541137695 12.676056 -2.0 0.100000165
683 137.541152954 21.830986 0.6666667 2.769927e-07
684 137.541152954 21.12676 2.0 2.6805742e-07
691 137.541152954 19.71831 1.3333334 2.5018693e-07
690 137.541152954 19.71831 2.0 2.5018693e-07
179 137.541152954 -1.2688052e-09 0.0 0.1
180 137.541152954 -1.2688052e-09 -0.6666667 0.1
187 137.541152954 9.859155 0.0 0.20000012
186 137.541152954 10.56338 -0.6666667 0.20000014
1465 138.417709351 48.59155 2.0 0.10000062
1466 138.417709351 48.59155 1.3333334 0.10000062
1473 138.417709351 47.887325 1.3333334 0.100000605
1472 138.417709351 47.887325 2.0 0.100000605
961 138.417709351 28.87324 0.6666667 3.6634515e-07
962 138.417709351 28.169014 2.0 3.574099e-07
969 138.417709351 26.760563 1.3333334 3.395394e-07
968 138.417709351 26.760563 2.0 3.395394e-07
962 138.423171997 28.169014 2.0 3.574099e-07
963 138.423171997 28.169014 1.3333334 3.574099e-07
970 138.423171997 26.760563 0.6666667 3.395394e-07
969 138.423171997 26.760563 1.3333334 3.395394e-07
458 138.423171997 23.239437 -2.0 0.2000003
459 138.423171997 22.535212 -1.3333334 0.20000029
466 138.423171997 20.422535 -2.0 0.20000026
465 138.423171997 20.422535 -1.3333334 0.20000026
730 138.226287842 22.535212 2.0 0.20000029
731 138.226287842 22.535212 1.3333334 0.20000029
738 138.226287842 21.12676 0.6666667 0.20000027
737 138.226287842 21.12676 1.3333334 0.20000027
226 138.226287842 4.2253523 1.3333334 5.361149e-08
227 138.226287842 4.2253523 0.6666667 5.361149e-08
234 138.226287842 2.1126761 2.0 2.6805743e-08
233 138.226287842 2.8169014 0.6666667 3.5740992e-08
1234 138.226287842 39.43662 2.0 5.0037386e-07
1235 138.226287842 39.43662 1.3333334 5.0037386e-07
1242 138.226287842 38.028168 0.6666667 4.8250337e-07
1241 138.226287842 38.028168 1.3333334 4.8250337e-07
730 138.226287842 22.535212 2.0 0.20000029
731 138.226287842 22.535212 1.3333334 0.20000029
738 138.226287842 21.12676 0.6666667 0.20000027
737 138.226287842 21.12676 1.3333334 0.20000027
946 138.226211548 28.169014 -0.6666667 0.20000036
947 138.226211548 27.464788 0.0 0.20000035
954 138.226211548 30.28169 1.3333334 3.8421567e-07
953 138.226211548 30.28169 2.0 3.8421567e-07
442 138.226211548 16.197184 -2.0 0.10000021
443 138.226211548 15.492958 -1.3333334 0.100000195
450 138.226211548 13.380281 -2.0 0.10000017
449 138.226211548 13.380281 -1.3333334 0.10000017
731 138.219223022 22.535212 1.3333334 0.20000029
732 138.219223022 22.535212 0.6666667 0.20000029
739 138.219223022 20.422535 2.0 0.20000026
738 138.219223022 21.12676 0.6666667 0.20000027
227 138.219223022 4.2253523 0.6666667 5.361149e-08
228 138.219223022 3.5211267 2.0 4.4676238e-08
235 138.219223022 2.1126761 1.3333334 2.6805743e-08
234 138.219223022 2.1126761 2.0 2.6805743e-08
1450 138.219161987 47.183098 -2.0 5.986616e-07
1451 138.219161987 50.0 2.0 0.100000635
1458 138.219161987 49.295776 2.0 0.10000063
1457 138.219161987 50.0 -2.0 0.100000635
946 138.219161987 28.169014 -0.6666667 0.20000036
947 138.219161987 27.464788 0.0 0.20000035
954 138.219161987 30.28169 1.3333334 3.8421567e-07
953 138.219161987 30.28169 2.0 3.8421567e-07
1466 138.445098877 48.59155 1.3333334 0.10000062
1467 138.445098877 48.59155 0.6666667 0.10000062
1474 138.445098877 47.887325 0.6666667 0.100000605
1473 138.445098877 47.887325 1.3333334 0.100000605
962 138.445098877 28.169014 2.0 3.574099e-07
963 138.445098877 28.169014 1.3333334 3.574099e-07
970 138.445098877 26.760563 0.6666667 3.395394e-07
969 138.445098877 26.760563 1.3333334 3.395394e-07
1235 138.19039917 39.43662 1.3333334 5.0037386e-07
1236 138.19039917 39.43662 0.6666667 5.0037386e-07
1243 138.19039917 37.323944 2.0 4.7356812e-07
1242 138.19039917 38.028168 0.6666667 4.8250337e-07
731 138.19039917 22.535212 1.3333334 0.20000029
732 138.19039917 22.535212 0.6666667 0.20000029
739 138.19039917 20.422535 2.0 0.20000026
738 138.19039917 21.12676 0.6666667 0.20000027
1443 138.190322876 47.887325 -2.0 6.0759686e-07
1444 138.190322876 47.183098 2.0 5.986616e-07
1451 138.190322876 50.0 2.0 0.100000635
1450 138.190322876 47.183098 -2.0 5.986616e-07
939 138.190322876 30.28169 0.0 0.20000039
940 138.190322876 30.28169 -0.6666667 0.20000039
947 138.190322876 27.464788 0.0 0.20000035
946 138.190322876 28.169014 -0.6666667 0.20000036
1241 138.489135742 38.028168 1.3333334 4.8250337e-07
1242 138.489135742 38.028168 0.6666667 4.8250337e-07
1249 138.489135742 42.957745 2.0 0.100000545
1248 138.489135742 36.619717 0.6666667 4.6463285e-07
737 138.489135742 21.12676 1.3333334 0.20000027
738 138.489135742 21.12676 0.6666667 0.20000027
745 138.489135742 19.014084 2.0 0.20000024
744 138.489135742 19.71831 0.6666667 0.20000026
1459 138.489196777 49.295776 1.3333334 0.10000063
1460 138.489196777 49.295776 0.6666667 0.10000063
1467 138.489196777 48.59155 0.6666667 0.10000062
1466 138.489196777 48.59155 1.3333334 0.10000062
955 138.489196777 30.28169 0.6666667 3.8421567e-07
956 138.489196777 29.577465 2.0 3.7528042e-07
963 138.489196777 28.169014 1.3333334 3.574099e-07
962 138.489196777 28.169014 2.0 3.574099e-07
738 138.497894287 21.12676 0.6666667 0.20000027
739 138.497894287 20.422535 2.0 0.20000026
746 138.497894287 19.014084 1.3333334 0.20000024
745 138.497894287 19.014084 2.0 0.20000024
234 138.497894287 2.1126761 2.0 2.6805743e-08
235 138.497894287 2.1126761 1.3333334 2.6805743e-08
242 138.497894287 0.70422536 0.6666667 8.935248e-09
241 138.497894287 0.70422536 1.3333334 8.935248e-09
1460 138.497970581 49.295776 0.6666667 0.10000063
1461 138.497970581 49.295776 0.0 0.10000063
1468 138.497970581 48.59155 0.0 0.10000062
1467 138.497970581 48.59155 0.6666667 0.10000062
956 138.497970581 29.577465 2.0 3.7528042e-07
957 138.497970581 29.577465 1.3333334 3.7528042e-07
964 138.497970581 28.169014 0.6666667 3.574099e-07
963 138.497970581 28.169014 1.3333334 3.574099e-07
739 138.535934448 20.422535 2.0 0.20000026
740 138.535934448 20.422535 1.3333334 0.20000026
747 138.535934448 19.014084 0.6666667 0.20000024
746 138.535934448 19.014084 1.3333334 0.20000024
235 138.535934448 2.1126761 1.3333334 2.6805743e-08
236 138.535934448 2.1126761 0.6666667 2.6805743e-08
243 138.535934448 0.0 2.0 0.0
242 138.535934448 0.70422536 0.6666667 8.935248e-09
947 138.536010742 27.464788 0.0 0.20000035
948 138.536010742 26.760563 0.0 0.20000035
955 138.536010742 30.28169 0.6666667 3.8421567e-07
954 138.536010742 30.28169 1.3333334 3.8421567e-07
443 138.536010742 15.492958 -1.3333334 0.100000195
444 138.536010742 15.492958 -2.0 0.100000195
451 138.536010742 12.676056 -1.3333334 0.100000165
450 138.536010742 13.380281 -2.0 0.10000017
744 138.139312744 19.71831 0.6666667 0.20000026
745 138.139312744 19.014084 2.0 0.20000024
752 138.139312744 34.507042 -1.3333334 4.3782714e-07
751 138.139312744 35.21127 -2.0 4.467624e-07
240 138.139312744 0.70422536 2.0 8.935248e-09
241 138.139312744 0.70422536 1.3333334 8.935248e-09
248 138.139312744 6.338028 0.6666667 0.10000008
247 138.139312744 6.338028 1.3333334 0.10000008
942 138.139266968 29.577465 -0.6666667 0.20000038
943 138.139266968 28.87324 0.0 0.20000038
950 138.139266968 26.056337 -0.6666667 0.20000033
949 138.139266968 26.056337 0.0 0.20000033
438 138.139266968 17.605635 -2.0 0.100000225
439 138.139266968 16.90141 -1.3333334 0.10000022
446 138.139266968 14.788733 -2.0 0.10000019
445 138.139266968 14.788733 -1.3333334 0.10000019
1248 138.128723145 36.619717 0.6666667 4.6463285e-07
1249 138.128723145 42.957745 2.0 0.100000545
1256 138.128723145 41.549297 1.3333334 0.10000053
1255 138.128723145 41.549297 2.0 0.10000053
744 138.128723145 19.71831 0.6666667 0.20000026
745 138.128723145 19.014084 2.0 0.20000024
752 138.128723145 34.507042 -1.3333334 4.3782714e-07
751 138.128723145 35.21127 -2.0 4.467624e-07
1452 138.128662109 50.0 1.3333334 0.100000635
1453 138.128662109 50.0 0.6666667 0.100000635
1460 138.128662109 49.295776 0.6666667 0.10000063
1459 138.128662109 49.295776 1.3333334 0.10000063
948 138.128662109 26.760563 0.0 0.20000035
949 138.128662109 26.056337 0.0 0.20000033
956 138.128662109 29.577465 2.0 3.7528042e-07
955 138.128662109 30.28169 0.6666667 3.8421567e-07
745 138.079406738 19.014084 2.0 0.20000024
746 138.079406738 19.014084 1.3333334 0.20000024
753 138.079406738 34.507042 -2.0 4.3782714e-07
752 138.079406738 34.507042 -1.3333334 4.3782714e-07
241 138.079406738 0.70422536 1.3333334 8.935248e-09
242 138.079406738 0.70422536 0.6666667 8.935248e-09
249 138.079406738 5.633803 2.0 0.100000076
248 138.079406738 6.338028 0.6666667 0.10000008
1445 138.079345703 47.183098 1.3333334 5.986616e-07
1446 138.079345703 47.183098 0.6666667 5.986616e-07
1453 138.079345703 50.0 0.6666667 0.100000635
1452 138.079345703 50.0 1.3333334 0.100000635
941 138.079345703 29.577465 0.0 0.20000038
942 138.079345703 29.577465 -0.6666667 0.20000038
949 138.079345703 26.056337 0.0 0.20000033
948 138.079345703 26.760563 0.0 0.20000035
757 138.596603394 33.09859 -2.0 4.1995665e-07
758 138.596603394 32.394367 -1.3333334 4.110214e-07
765 138.596603394 30.28169 -2.0 3.8421567e-07
764 138.596603394 30.28169 -1.3333334 3.8421567e-07
253 138.596603394 4.9295774 1.3333334 0.10000006
254 138.596603394 4.9295774 0.6666667 0.10000006
261 138.596603394 2.8169014 2.0 0.10000004
260 138.596603394 3.5211267 0.6666667 0.100000046
1391 138.596664429 45.774647 0.0 0.20000058
1392 138.596664429 45.774647 -0.6666667 0.20000058
1399 138.596664429 45.070423 -0.6666667 0.20000057
1398 138.596664429 45.070423 0.0 0.20000057
887 138.596664429 25.352112 -0.6666667 3.2166892e-07
888 138.596664429 24.647888 0.0 3.1273368e-07
895 138.596664429 35.21127 -0.6666667 0.10000045
894 138.596664429 35.21127 0.0 0.10000045
1261 138.608825684 40.140846 2.0 0.10000051
1262 138.608825684 40.140846 1.3333334 0.10000051
1269 138.608825684 38.732395 0.6666667 0.10000049
1268 138.608825684 38.732395 1.3333334 0.10000049
757 138.608825684 33.09859 -2.0 4.1995665e-07
758 138.608825684 32.394367 -1.3333334 4.110214e-07
765 138.608825684 30.28169 -2.0 3.8421567e-07
764 138.608825684 30.28169 -1.3333334 3.8421567e-07
893 138.60887146 35.915493 -0.6666667 0.100000456
894 138.60887146 35.21127 0.0 0.10000045
901 138.60887146 33.09859 -0.6666667 0.10000042
900 138.60887146 33.09859 0.0 0.10000042
389 138.60887146 21.830986 -1.3333334 2.769927e-07
390 138.60887146 21.830986 -2.0 2.769927e-07
397 138.60887146 19.014084 -1.3333334 2.4125168e-07
396 138.60887146 19.71831 -2.0 2.5018693e-07
751 138.67300415 35.21127 -2.0 4.467624e-07
752 138.67300415 34.507042 -1.3333334 4.3782714e-07
759 138.67300415 32.394367 -2.0 4.110214e-07
758 138.67300415 32.394367 -1.3333334 4.110214e-07
247 138.67300415 6.338028 1.3333334 0.10000008
248 138.67300415 6.338028 0.6666667 0.10000008
255 138.67300415 4.2253523 2.0 0.10000005
254 138.67300415 4.9295774 0.6666667 0.10000006
894 138.673080444 35.21127 0.0 0.10000045
895 138.673080444 35.21127 -0.6666667 0.10000045
902 138.673080444 32.394367 0.0 0.10000041
901 138.673080444 33.09859 -0.6666667 0.10000042
390 138.673080444 21.830986 -2.0 2.769927e-07
391 138.673080444 21.12676 -1.3333334 2.6805742e-07
398 138.673080444 19.014084 -2.0 2.4125168e-07
397 138.673080444 19.014084 -1.3333334 2.4125168e-07
758 138.009841919 32.394367 -1.3333334 4.110214e-07
759 138.009841919 32.394367 -2.0 4.110214e-07
766 138.009841919 29.577465 -1.3333334 3.7528042e-07
765 138.009841919 30.28169 -2.0 3.8421567e-07
254 138.009841919 4.9295774 0.6666667 0.10000006
255 138.009841919 4.2253523 2.0 0.10000005
262 138.009841919 2.8169014 1.3333334 0.10000004
261 138.009841919 2.8169014 2.0 0.10000004
1405 138.009796143 44.366196 0.0 0.20000057
1406 138.009796143 44.366196 -0.6666667 0.20000057
1413 138.009796143 43.661972 -0.6666667 0.20000055
1412 138.009796143 43.661972 0.0 0.20000055
901 138.009796143 33.09859 -0.6666667 0.10000042
902 138.009796143 32.394367 0.0 0.10000041
909 138.009796143 30.28169 -0.6666667 0.10000039
908 138.009796143 30.28169 0.0 0.10000039
759 137.996917725 32.394367 -2.0 4.110214e-07
760 137.996917725 31.690142 -1.3333334 4.0208616e-07
767 137.996917725 29.577465 -2.0 3.7528042e-07
766 137.996917725 29.577465 -1.3333334 3.7528042e-07
255 137.996917725 4.2253523 2.0 0.10000005
256 137.996917725 4.2253523 1.3333334 0.10000005
263 137.996917725 2.8169014 0.6666667 0.10000004
262 137.996917725 2.8169014 1.3333334 0.10000004
907 137.996841431 30.985916 -0.6666667 0.1000004
908 137.996841431 30.28169 0.0 0.10000039
915 137.996841431 28.169014 -0.6666667 0.10000036
914 137.996841431 28.169014 0.0 0.10000036
403 137.996841431 16.90141 -1.3333334 2.1444595e-07
404 137.996841431 16.90141 -2.0 2.1444595e-07
411 137.996841431 14.084507 -1.3333334 1.7870495e-07
410 137.996841431 14.788733 -2.0 1.876402e-07
1145 137.91506958 36.619717 -1.3333334 4.6463285e-07
1146 137.91506958 36.619717 -2.0 4.6463285e-07
1153 137.91506958 42.25352 -1.3333334 0.10000054
1152 137.91506958 42.25352 -0.6666667 0.10000054
641 137.91506958 13.380281 1.3333334 0.10000017
642 137.91506958 13.380281 0.6666667 0.10000017
649 137.91506958 17.605635 1.3333334 0.20000023
648 137.91506958 17.605635 2.0 0.20000023
908 137.914993286 30.28169 0.0 0.10000039
909 137.914993286 30.28169 -0.6666667 0.10000039
916 137.914993286 27.464788 0.0 0.10000035
915 137.914993286 28.169014 -0.6666667 0.10000036
404 137.914993286 16.90141 -2.0 2.1444595e-07
405 137.914993286 16.197184 -1.3333334 2.055107e-07
412 137.914993286 14.084507 -2.0 1.7870495e-07
411 137.914993286 14.084507 -1.3333334 1.7870495e-07
1152 138.751800537 42.25352 -0.6666667 0.10000054
1153 138.751800537 42.25352 -1.3333334 0.10000054
1160 138.751800537 40.84507 -0.6666667 0.100000516
1159 138.751800537 40.84507 0.0 0.100000516
648 138.751800537 17.605635 2.0 0.20000023
649 138.751800537 17.605635 1.3333334 0.20000023
656 138.751800537 16.197184 0.6666667 0.20000021
655 138.751800537 16.197184 1.3333334 0.20000021
915 138.751876831 28.169014 -0.6666667 0.10000036
916 138.751876831 27.464788 0.0 0.10000035
923 138.751876831 36.619717 -0.6666667 0.20000046
922 138.751876831 36.619717 0.0 0.20000046
411 138.751876831 14.084507 -1.3333334 1.7870495e-07
412 138.751876831 14.084507 -2.0 1.7870495e-07
419 138.751876831 23.943663 -1.3333334 0.10000031
418 138.751876831 24.647888 -2.0 0.100000314
649 138.767501831 17.605635 1.3333334 0.20000023
650 138.767501831 17.605635 0.6666667 0.20000023
657 138.767501831 15.492958 2.0 0.2000002
656 138.767501831 16.197184 0.6666667 0.20000021
145 138.767501831 11.971831 0.0 0.10000015
146 138.767501831 11.971831 -0.6666667 0.10000015
153 138.767501831 9.154929 0.0 0.10000012
152 138.767501831 9.859155 -0.6666667 0.10000013
1419 138.767578125 50.0 -5.551115e-17 6.3440257e-07
1420 138.767578125 50.0 -0.6666667 6.3440257e-07
1427 138.767578125 49.295776 -0.6666667 6.2546735e-07
1426 138.767578125 49.295776 0.0 6.2546735e-07
915 138.767578125 28.169014 -0.6666667 0.10000036
916 138.767578125 27.464788 0.0 0.10000035
923 138.767578125 36.619717 -0.6666667 0.20000046
922 138.767578125 36.619717 0.0 0.20000046
1153 138.87538147 42.25352 -1.3333334 0.10000054
1154 138.87538147 42.25352 -2.0 0.10000054
1161 138.87538147 40.84507 -1.3333334 0.100000516
1160 138.87538147 40.84507 -0.6666667 0.100000516
649 138.87538147 17.605635 1.3333334 0.20000023
650 138.87538147 17.605635 0.6666667 0.20000023
657 138.87538147 15.492958 2.0 0.2000002
656 138.87538147 16.197184 0.6666667 0.20000021
921 138.875442505 25.352112 -0.6666667 0.10000032
922 138.875442505 36.619717 0.0 0.20000046
929 138.875442505 34.507042 -0.6666667 0.20000044
928 138.875442505 34.507042 0.0 0.20000044
417 138.875442505 24.647888 -1.3333334 0.100000314
418 138.875442505 24.647888 -2.0 0.100000314
425 138.875442505 21.830986 -1.3333334 0.10000028
424 138.875442505 22.535212 -2.0 0.100000285
1160 137.818634033 40.84507 -0.6666667 0.100000516
1161 137.818634033 40.84507 -1.3333334 0.100000516
1168 137.818634033 39.43662 -0.6666667 0.1000005
1167 137.818634033 39.43662 0.0 0.1000005
656 137.818634033 16.197184 0.6666667 0.20000021
657 137.818634033 15.492958 2.0 0.2000002
664 137.818634033 14.084507 1.3333334 0.20000018
663 137.818634033 14.084507 2.0 0.20000018
928 137.818572998 34.507042 0.0 0.20000044
929 137.818572998 34.507042 -0.6666667 0.20000044
936 137.818572998 31.690142 -0.6666667 0.2000004
935 137.818572998 31.690142 0.0 0.2000004
424 137.818572998 22.535212 -2.0 0.100000285
425 137.818572998 21.830986 -1.3333334 0.10000028
432 137.818572998 19.71831 -2.0 0.100000255
431 137.818572998 19.71831 -1.3333334 0.100000255
662 137.810333252 14.788733 0.6666667 0.2000002
663 137.810333252 14.084507 2.0 0.20000018
670 137.810333252 12.676056 1.3333334 0.20000017
669 137.810333252 12.676056 2.0 0.20000017
158 137.810333252 7.746479 -0.6666667 0.1000001
159 137.810333252 7.0422535 0.0 0.10000009
166 137.810333252 4.9295774 -0.6666667 0.10000006
165 137.810333252 4.9295774 0.0 0.10000006
1432 137.810272217 48.59155 0.6666667 6.165321e-07
1433 137.810272217 48.59155 0.0 6.165321e-07
1440 137.810272217 47.887325 0.0 6.0759686e-07
1439 137.810272217 47.887325 0.6666667 6.0759686e-07
928 137.810272217 34.507042 0.0 0.20000044
929 137.810272217 34.507042 -0.6666667 0.20000044
936 137.810272217 31.690142 -0.6666667 0.2000004
935 137.810272217 31.690142 0.0 0.2000004
1166 137.680908203 40.140846 -2.0 0.10000051
1167 137.680908203 39.43662 0.0 0.1000005
1174 137.680908203 38.732395 -2.0 0.10000049
1173 137.680908203 38.732395 -1.3333334 0.10000049
662 137.680908203 14.788733 0.6666667 0.2000002
663 137.680908203 14.084507 2.0 0.20000018
670 137.680908203 12.676056 1.3333334 0.20000017
669 137.680908203 12.676056 2.0 0.20000017
929 137.680847168 34.507042 -0.6666667 0.20000044
930 137.680847168 33.80282 0.0 0.20000044
937 137.680847168 30.985916 0.0 0.20000039
936 137.680847168 31.690142 -0.6666667 0.2000004
425 137.680847168 21.830986 -1.3333334 0.10000028
426 137.680847168 21.830986 -2.0 0.10000028
433 137.680847168 19.014084 -1.3333334 0.10000024
432 137.680847168 19.71831 -2.0 0.100000255
670 138.965881348 12.676056 1.3333334 0.20000017
671 138.965881348 23.943663 2.0 3.0379843e-07
678 138.965881348 22.535212 2.0 2.8592794e-07
677 138.965881348 23.239437 0.6666667 2.9486318e-07
166 138.965881348 4.9295774 -0.6666667 0.10000006
167 138.965881348 4.2253523 0.0 0.10000005
174 138.965881348 2.1126761 -0.6666667 0.10000003
173 138.965881348 2.1126761 0.0 0.10000003
936 138.965942383 31.690142 -0.6666667 0.2000004
937 138.965942383 30.985916 0.0 0.20000039
944 138.965942383 28.87324 -0.6666667 0.20000038
943 138.965942383 28.87324 0.0 0.20000038
432 138.965942383 19.71831 -2.0 0.100000255
433 138.965942383 19.014084 -1.3333334 0.10000024
440 138.965942383 16.90141 -2.0 0.10000022
439 138.965942383 16.90141 -1.3333334 0.10000022
1174 138.986251831 38.732395 -2.0 0.10000049
1175 138.986251831 38.028168 0.0 0.100000486
1182 138.986251831 37.323944 -2.0 0.10000047
1181 138.986251831 37.323944 -1.3333334 0.10000047
670 138.986251831 12.676056 1.3333334 0.20000017
671 138.986251831 23.943663 2.0 3.0379843e-07
678 138.986251831 22.535212 2.0 2.8592794e-07
677 138.986251831 23.239437 0.6666667 2.9486318e-07
1440 138.986328125 47.887325 0.0 6.0759686e-07
1441 138.986328125 47.887325 -0.6666667 6.0759686e-07
1448 138.986328125 47.183098 -0.6666667 5.986616e-07
1447 138.986328125 47.183098 0.0 5.986616e-07
936 138.986328125 31.690142 -0.6666667 0.2000004
937 138.986328125 30.985916 0.0 0.20000039
944 138.986328125 28.87324 -0.6666667 0.20000038
943 138.986328125 28.87324 0.0 0.20000038
676 139.172729492 23.239437 1.3333334 2.9486318e-07
677 139.172729492 23.239437 0.6666667 2.9486318e-07
684 139.172729492 21.12676 2.0 2.6805742e-07
683 139.172729492 21.830986 0.6666667 2.769927e-07
172 139.172729492 2.8169014 -0.6666667 0.10000004
173 139.172729492 2.1126761 0.0 0.10000003
180 139.172729492 -1.2688052e-09 -0.6666667 0.1
179 139.172729492 -1.2688052e-09 0.0 0.1
1446 139.172790527 47.183098 0.6666667 5.986616e-07
1447 139.172790527 47.183098 0.0 5.986616e-07
1454 139.172790527 50.0 -1.6653345e-16 0.100000635
1453 139.172790527 50.0 0.6666667 0.100000635
942 139.172790527 29.577465 -0.6666667 0.20000038
943 139.172790527 28.87324 0.0 0.20000038
950 139.172790527 26.056337 -0.6666667 0.20000033
949 139.172790527 26.056337 0.0 0.20000033
1187 137.541152954 42.25352 0.0 0.20000054
1188 137.541152954 42.25352 -0.6666667 0.20000054
1195 137.541152954 40.84507 0.0 0.20000052
1194 137.541152954 41.549297 -2.0 0.20000052
683 137.541152954 21.830986 0.6666667 2.769927e-07
684 137.541152954 21.12676 2.0 2.6805742e-07
691 137.541152954 19.71831 1.3333334 2.5018693e-07
690 137.541152954 19.71831 2.0 2.5018693e-07
1453 137.541137695 50.0 0.6666667 0.100000635
1454 137.541137695 50.0 -1.6653345e-16 0.100000635
1461 137.541137695 49.295776 0.0 0.10000063
1460 137.541137695 49.295776 0.6666667 0.10000063
949 137.541137695 26.056337 0.0 0.20000033
950 137.541137695 26.056337 -0.6666667 0.20000033
957 137.541137695 29.577465 1.3333334 3.7528042e-07
956 137.541137695 29.577465 2.0 3.7528042e-07
684 137.554458618 21.12676 2.0 2.6805742e-07
685 137.554458618 21.12676 1.3333334 2.6805742e-07
692 137.554458618 19.71831 0.6666667 2.5018693e-07
691 137.554458618 19.71831 1.3333334 2.5018693e-07
180 137.554458618 -1.2688052e-09 -0.6666667 0.1
181 137.554458618 11.971831 0.0 0.20000015
188 137.554458618 9.859155 -0.6666667 0.20000012
187 137.554458618 9.859155 0.0 0.20000012
950 137.554412842 26.056337 -0.6666667 0.20000033
951 137.554412842 25.352112 0.0 0.20000033
958 137.554412842 29.577465 0.6666667 3.7528042e-07
957 137.554412842 29.577465 1.3333334 3.7528042e-07
446 137.554412842 14.788733 -2.0 0.10000019
447 137.554412842 14.084507 -1.3333334 0.10000018
454 137.554412842 24.647888 -2.0 0.20000032
453 137.554412842 24.647888 -1.3333334 0.20000032
1188 137.363372803 42.25352 -0.6666667 0.20000054
1189 137.363372803 42.25352 -1.3333334 0.20000054
1196 137.363372803 40.84507 -0.6666667 0.20000052
1195 137.363372803 40.84507 0.0 0.20000052
684 137.363372803 21.12676 2.0 2.6805742e-07
685 137.363372803 21.12676 1.3333334 2.6805742e-07
692 137.363372803 19.71831 0.6666667 2.5018693e-07
691 137.363372803 19.71831 1.3333334 2.5018693e-07
1454 137.363327026 50.0 -1.6653345e-16 0.100000635
1455 137.363327026 50.0 -0.6666667 0.100000635
1462 137.363327026 49.295776 -0.6666667 0.10000063
1461 137.363327026 49.295776 0.0 0.10000063
950 137.363327026 26.056337 -0.6666667 0.20000033
951 137.363327026 25.352112 0.0 0.20000033
958 137.363327026 29.577465 0.6666667 3.7528042e-07
957 137.363327026 29.577465 1.3333334 3.7528042e-07
690 139.606445312 19.71831 2.0 2.5018693e-07
691 139.606445312 19.71831 1.3333334 2.5018693e-07
698 139.606445312 23.943663 2.0 0.10000031
697 139.606445312 24.647888 0.6666667 0.100000314
186 139.606445312 10.56338 -0.6666667 0.20000014
187 139.606445312 9.859155 0.0 0.20000012
194 139.606445312 7.746479 -0.6666667 0.2000001
193 139.606445312 7.746479 0.0 0.2000001
1194 139.281356812 41.549297 -2.0 0.20000052
1195 139.281356812 40.84507 0.0 0.20000052
1202 139.281356812 40.140846 -2.0 0.20000051
1201 139.281356812 40.140846 -1.3333334 0.20000051
690 139.281356812 19.71831 2.0 2.5018693e-07
691 139.281356812 19.71831 1.3333334 2.5018693e-07
698 139.281356812 23.943663 2.0 0.10000031
697 139.281356812 24.647888 0.6666667 0.100000314
956 139.606536865 29.577465 2.0 3.7528042e-07
957 139.606536865 29.577465 1.3333334 3.7528042e-07
964 139.606536865 28.169014 0.6666667 3.574099e-07
963 139.606536865 28.169014 1.3333334 3.574099e-07
452 139.606536865 12.676056 -2.0 0.100000165
453 139.606536865 24.647888 -1.3333334 0.20000032
460 139.606536865 22.535212 -2.0 0.20000029
459 139.606536865 22.535212 -1.3333334 0.20000029
1447 137.554412842 47.183098 0.0 5.986616e-07
1448 137.554412842 47.183098 -0.6666667 5.986616e-07
1455 137.554412842 50.0 -0.6666667 0.100000635
1454 137.554412842 50.0 -1.6653345e-16 0.100000635
943 137.554412842 28.87324 0.0 0.20000038
944 137.554412842 28.87324 -0.6666667 0.20000038
951 137.554412842 25.352112 0.0 0.20000033
950 137.554412842 26.056337 -0.6666667 0.20000033
957 139.281448364 29.577465 1.3333334 3.7528042e-07
958 139.281448364 29.577465 0.6666667 3.7528042e-07
965 139.281448364 27.464788 2.0 3.4847466e-07
964 139.281448364 28.169014 0.6666667 3.574099e-07
453 139.281448364 24.647888 -1.3333334 0.20000032
454 139.281448364 24.647888 -2.0 0.20000032
461 139.281448364 21.830986 -1.3333334 0.20000029
460 139.281448364 22.535212 -2.0 0.20000029
1202 136.926376343 40.140846 -2.0 0.20000051
1203 136.926376343 39.43662 0.0 0.20000051
1210 136.926376343 38.732395 -2.0 0.2000005
1209 136.926376343 38.732395 -1.3333334 0.2000005
698 136.926376343 23.943663 2.0 0.10000031
699 136.926376343 23.943663 1.3333334 0.10000031
706 136.926376343 22.535212 0.6666667 0.100000285
705 136.926376343 22.535212 1.3333334 0.100000285
704 137.232513428 22.535212 2.0 0.100000285
705 137.232513428 22.535212 1.3333334 0.100000285
712 137.232513428 21.12676 0.6666667 0.10000027
711 137.232513428 21.12676 1.3333334 0.10000027
200 137.232513428 5.633803 -0.6666667 0.20000008
201 137.232513428 4.9295774 0.0 0.20000006
208 137.232513428 2.8169014 -0.6666667 0.20000003
207 137.232513428 2.8169014 0.0 0.20000003
1468 136.926345825 48.59155 0.0 0.10000062
1469 136.926345825 48.59155 -0.6666667 0.10000062
1476 136.926345825 47.887325 -0.6666667 0.100000605
1475 136.926345825 47.887325 0.0 0.100000605
964 136.926345825 28.169014 0.6666667 3.574099e-07
965 136.926345825 27.464788 2.0 3.4847466e-07
972 136.926345825 26.056337 1.3333334 3.3060417e-07
971 136.926345825 26.056337 2.0 3.3060417e-07
1474 137.232467651 47.887325 0.6666667 0.100000605
1475 137.232467651 47.887325 0.0 0.100000605
1482 137.232467651 50.0 2.0 0.20000064
1481 137.232467651 47.183098 -2.0 0.1000006
970 137.232467651 26.760563 0.6666667 3.395394e-07
971 137.232467651 26.056337 2.0 3.3060417e-07
978 137.232467651 24.647888 1.3333334 3.1273368e-07
977 137.232467651 24.647888 2.0 3.1273368e-07
691 139.268859863 19.71831 1.3333334 2.5018693e-07
692 139.268859863 19.71831 0.6666667 2.5018693e-07
699 139.268859863 23.943663 1.3333334 0.10000031
698 139.268859863 23.943663 2.0 0.10000031
187 139.268859863 9.859155 0.0 0.20000012
188 139.268859863 9.859155 -0.6666667 0.20000012
195 139.268859863 7.0422535 0.0 0.20000009
194 139.268859863 7.746479 -0.6666667 0.2000001
1461 139.268951416 49.295776 0.0 0.10000063
1462 139.268951416 49.295776 -0.6666667 0.10000063
1469 139.268951416 48.59155 -0.6666667 0.10000062
1468 139.268951416 48.59155 0.0 0.10000062
957 139.268951416 29.577465 1.3333334 3.7528042e-07
958 139.268951416 29.577465 0.6666667 3.7528042e-07
965 139.268951416 27.464788 2.0 3.4847466e-07
964 139.268951416 28.169014 0.6666667 3.574099e-07
705 137.211044312 22.535212 1.3333334 0.100000285
706 137.211044312 22.535212 0.6666667 0.100000285
713 137.211044312 20.422535 2.0 0.10000026
712 137.211044312 21.12676 0.6666667 0.10000027
201 137.211044312 4.9295774 0.0 0.20000006
202 137.211044312 4.9295774 -0.6666667 0.20000006
209 137.211044312 2.1126761 0.0 0.20000003
208 137.211044312 2.8169014 -0.6666667 0.20000003
971 137.211029053 26.056337 2.0 3.3060417e-07
972 137.211029053 26.056337 1.3333334 3.3060417e-07
979 137.211029053 24.647888 0.6666667 3.1273368e-07
978 137.211029053 24.647888 1.3333334 3.1273368e-07
467 137.211029053 19.71831 -1.3333334 0.20000026
468 137.211029053 19.71831 -2.0 0.20000026
475 137.211029053 16.90141 -1.3333334 0.20000021
474 137.211029053 17.605635 -2.0 0.20000023
712 140.143676758 21.12676 0.6666667 0.10000027
713 140.143676758 20.422535 2.0 0.10000026
720 140.143676758 19.014084 1.3333334 0.10000024
719 140.143676758 19.014084 2.0 0.10000024
208 140.143676758 2.8169014 -0.6666667 0.20000003
209 140.143676758 2.1126761 0.0 0.20000003
216 140.143676758 -2.5376103e-09 -0.6666667 0.2
215 140.143676758 -2.5376103e-09 0.0 0.2
1216 139.704925537 37.323944 -0.6666667 0.20000048
1217 139.704925537 37.323944 -1.3333334 0.20000048
1224 139.704925537 42.25352 0.6666667 5.3611484e-07
1223 139.704925537 42.25352 1.3333334 5.3611484e-07
712 139.704925537 21.12676 0.6666667 0.10000027
713 139.704925537 20.422535 2.0 0.10000026
720 139.704925537 19.014084 1.3333334 0.10000024
719 139.704925537 19.014084 2.0 0.10000024
978 140.143814087 24.647888 1.3333334 3.1273368e-07
979 140.143814087 24.647888 0.6666667 3.1273368e-07
986 140.143814087 28.87324 2.0 0.10000037
985 140.143814087 29.577465 0.6666667 0.100000374
474 140.143814087 17.605635 -2.0 0.20000023
475 140.143814087 16.90141 -1.3333334 0.20000021
482 140.143814087 14.788733 -2.0 0.2000002
481 140.143814087 14.788733 -1.3333334 0.2000002
1482 139.705062866 50.0 2.0 0.20000064
1483 139.705062866 50.0 1.3333334 0.20000064
1490 139.705062866 49.295776 1.3333334 0.20000063
1489 139.705062866 49.295776 2.0 0.20000063
978 139.705062866 24.647888 1.3333334 3.1273368e-07
979 139.705062866 24.647888 0.6666667 3.1273368e-07
986 139.705062866 28.87324 2.0 0.10000037
985 139.705062866 29.577465 0.6666667 0.100000374
718 139.863647461 19.71831 0.6666667 0.100000255
719 139.863647461 19.014084 2.0 0.10000024
726 139.863647461 23.943663 0.6666667 0.2000003
725 139.863647461 23.943663 1.3333334 0.2000003
214 139.863647461 0.70422536 -0.6666667 0.20000002
215 139.863647461 -2.5376103e-09 0.0 0.2
222 139.863647461 4.9295774 2.0 6.254673e-08
221 139.863647461 5.633803 0.6666667 7.1481985e-08
984 139.863769531 29.577465 1.3333334 0.100000374
985 139.863769531 29.577465 0.6666667 0.100000374
992 139.863769531 27.464788 2.0 0.10000035
991 139.863769531 28.169014 0.6666667 0.10000036
480 139.863769531 15.492958 -2.0 0.2000002
481 139.863769531 14.788733 -1.3333334 0.2000002
488 139.863769531 12.676056 -2.0 0.20000017
487 139.863769531 12.676056 -1.3333334 0.20000017
1195 139.268859863 40.84507 0.0 0.20000052
1196 139.268859863 40.84507 -0.6666667 0.20000052
1203 139.268859863 39.43662 0.0 0.20000051
1202 139.268859863 40.140846 -2.0 0.20000051
691 139.268859863 19.71831 1.3333334 2.5018693e-07
692 139.268859863 19.71831 0.6666667 2.5018693e-07
699 139.268859863 23.943663 1.3333334 0.10000031
698 139.268859863 23.943663 2.0 0.10000031
963 139.268951416 28.169014 1.3333334 3.574099e-07
964 139.268951416 28.169014 0.6666667 3.574099e-07
971 139.268951416 26.056337 2.0 3.3060417e-07
970 139.268951416 26.760563 0.6666667 3.395394e-07
459 139.268951416 22.535212 -1.3333334 0.20000029
460 139.268951416 22.535212 -2.0 0.20000029
467 139.268951416 19.71831 -1.3333334 0.20000026
466 139.268951416 20.422535 -2.0 0.20000026
1209 137.211044312 38.732395 -1.3333334 0.2000005
1210 137.211044312 38.732395 -2.0 0.2000005
1217 137.211044312 37.323944 -1.3333334 0.20000048
1216 137.211044312 37.323944 -0.6666667 0.20000048
705 137.211044312 22.535212 1.3333334 0.100000285
706 137.211044312 22.535212 0.6666667 0.100000285
713 137.211044312 20.422535 2.0 0.10000026
712 137.211044312 21.12676 0.6666667 0.10000027
1475 137.211029053 47.887325 0.0 0.100000605
1476 137.211029053 47.887325 -0.6666667 0.100000605
1483 137.211029053 50.0 1.3333334 0.20000064
1482 137.211029053 50.0 2.0 0.20000064
971 137.211029053 26.056337 2.0 3.3060417e-07
972 137.211029053 26.056337 1.3333334 3.3060417e-07
979 137.211029053 24.647888 0.6666667 3.1273368e-07
978 137.211029053 24.647888 1.3333334 3.1273368e-07
1222 139.863647461 42.25352 2.0 5.3611484e-07
1223 139.863647461 42.25352 1.3333334 5.3611484e-07
1230 139.863647461 40.84507 0.6666667 5.1824435e-07
1229 139.863647461 40.84507 1.3333334 5.1824435e-07
718 139.863647461 19.71831 0.6666667 0.100000255
719 139.863647461 19.014084 2.0 0.10000024
726 139.863647461 23.943663 0.6666667 0.2000003
725 139.863647461 23.943663 1.3333334 0.2000003
1488 139.863769531 50.0 -2.0 0.20000064
1489 139.863769531 49.295776 2.0 0.20000063
1496 139.863769531 48.59155 2.0 0.20000061
1495 139.863769531 49.295776 -2.0 0.20000063
984 139.863769531 29.577465 1.3333334 0.100000374
985 139.863769531 29.577465 0.6666667 0.100000374
992 139.863769531 27.464788 2.0 0.10000035
991 139.863769531 28.169014 0.6666667 0.10000036
725 136.073806763 23.943663 1.3333334 0.2000003
726 136.073806763 23.943663 0.6666667 0.2000003
733 136.073806763 21.830986 2.0 0.20000029
732 136.073806763 22.535212 0.6666667 0.20000029
221 136.073806763 5.633803 0.6666667 7.1481985e-08
222 136.073806763 4.9295774 2.0 6.254673e-08
229 136.073806763 3.5211267 1.3333334 4.4676238e-08
228 136.073806763 3.5211267 2.0 4.4676238e-08
726 136.945114136 23.943663 0.6666667 0.2000003
727 136.945114136 23.239437 2.0 0.2000003
734 136.945114136 21.830986 1.3333334 0.20000029
733 136.945114136 21.830986 2.0 0.20000029
222 136.945114136 4.9295774 2.0 6.254673e-08
223 136.945114136 4.9295774 1.3333334 6.254673e-08
230 136.945114136 3.5211267 0.6666667 4.4676238e-08
229 136.945114136 3.5211267 1.3333334 4.4676238e-08
991 136.073852539 28.169014 0.6666667 0.10000036
992 136.073852539 27.464788 2.0 0.10000035
999 136.073852539 26.056337 1.3333334 0.10000033
998 136.073852539 26.056337 2.0 0.10000033
487 136.073852539 12.676056 -1.3333334 0.20000017
488 136.073852539 12.676056 -2.0 0.20000017
495 136.073852539 21.830986 -0.6666667 2.769927e-07
494 136.073852539 21.830986 0.0 2.769927e-07
998 136.945159912 26.056337 2.0 0.10000033
999 136.945159912 26.056337 1.3333334 0.10000033
1006 136.945159912 30.28169 1.3333334 0.20000039
1005 136.945159912 30.28169 2.0 0.20000039
494 136.945159912 21.830986 0.0 2.769927e-07
495 136.945159912 21.830986 -0.6666667 2.769927e-07
502 136.945159912 19.014084 0.0 2.4125168e-07
501 136.945159912 19.71831 -0.6666667 2.5018693e-07
1229 137.213775635 40.84507 1.3333334 5.1824435e-07
1230 137.213775635 40.84507 0.6666667 5.1824435e-07
1237 137.213775635 38.732395 2.0 4.9143864e-07
1236 137.213775635 39.43662 0.6666667 5.0037386e-07
725 137.213775635 23.943663 1.3333334 0.2000003
726 137.213775635 23.943663 0.6666667 0.2000003
733 137.213775635 21.830986 2.0 0.20000029
732 137.213775635 22.535212 0.6666667 0.20000029
1495 137.21383667 49.295776 -2.0 0.20000063
1496 137.21383667 48.59155 2.0 0.20000061
1503 137.21383667 47.887325 2.0 0.20000061
1502 137.21383667 48.59155 -2.0 0.20000061
991 137.21383667 28.169014 0.6666667 0.10000036
992 137.21383667 27.464788 2.0 0.10000035
999 137.21383667 26.056337 1.3333334 0.10000033
998 137.21383667 26.056337 2.0 0.10000033
1230 137.213775635 40.84507 0.6666667 5.1824435e-07
1231 137.213775635 40.140846 2.0 5.0930913e-07
1238 137.213775635 38.732395 1.3333334 4.9143864e-07
1237 137.213775635 38.732395 2.0 4.9143864e-07
726 137.213775635 23.943663 0.6666667 0.2000003
727 137.213775635 23.239437 2.0 0.2000003
734 137.213775635 21.830986 1.3333334 0.20000029
733 137.213775635 21.830986 2.0 0.20000029
1502 137.21383667 48.59155 -2.0 0.20000061
1503 137.21383667 47.887325 2.0 0.20000061
1510 137.21383667 47.183098 -0.6666667 0.2000006
1509 137.21383667 47.887325 -2.0 0.20000061
998 137.21383667 26.056337 2.0 0.10000033
999 137.21383667 26.056337 1.3333334 0.10000033
1006 137.21383667 30.28169 1.3333334 0.20000039
1005 137.21383667 30.28169 2.0 0.20000039
1201 139.281356812 40.140846 -1.3333334 0.20000051
1202 139.281356812 40.140846 -2.0 0.20000051
1209 139.281356812 38.732395 -1.3333334 0.2000005
1208 139.281356812 38.732395 -0.6666667 0.2000005
697 139.281356812 24.647888 0.6666667 0.100000314
698 139.281356812 23.943663 2.0 0.10000031
705 139.281356812 22.535212 1.3333334 0.100000285
704 139.281356812 22.535212 2.0 0.100000285
1467 139.281448364 48.59155 0.6666667 0.10000062
1468 139.281448364 48.59155 0.0 0.10000062
1475 139.281448364 47.887325 0.0 0.100000605
1474 139.281448364 47.887325 0.6666667 0.100000605
963 139.281448364 28.169014 1.3333334 3.574099e-07
964 139.281448364 28.169014 0.6666667 3.574099e-07
971 139.281448364 26.056337 2.0 3.3060417e-07
970 139.281448364 26.760563 0.6666667 3.395394e-07
711 137.232513428 21.12676 1.3333334 0.10000027
712 137.232513428 21.12676 0.6666667 0.10000027
719 137.232513428 19.014084 2.0 0.10000024
718 137.232513428 19.71831 0.6666667 0.100000255
207 137.232513428 2.8169014 0.0 0.20000003
208 137.232513428 2.8169014 -0.6666667 0.20000003
215 137.232513428 -2.5376103e-09 0.0 0.2
214 137.232513428 0.70422536 -0.6666667 0.20000002
977 137.232467651 24.647888 2.0 3.1273368e-07
978 137.232467651 24.647888 1.3333334 3.1273368e-07
985 137.232467651 29.577465 0.6666667 0.100000374
984 137.232467651 29.577465 1.3333334 0.100000374
473 137.232467651 17.605635 -1.3333334 0.20000023
474 137.232467651 17.605635 -2.0 0.20000023
481 137.232467651 14.788733 -1.3333334 0.2000002
480 137.232467651 15.492958 -2.0 0.2000002
719 139.704925537 19.014084 2.0 0.10000024
720 139.704925537 19.014084 1.3333334 0.10000024
727 139.704925537 23.239437 2.0 0.2000003
726 139.704925537 23.943663 0.6666667 0.2000003
215 139.704925537 -2.5376103e-09 0.0 0.2
216 139.704925537 -2.5376103e-09 -0.6666667 0.2
223 139.704925537 4.9295774 1.3333334 6.254673e-08
222 139.704925537 4.9295774 2.0 6.254673e-08
985 139.705062866 29.577465 0.6666667 0.100000374
986 139.705062866 28.87324 2.0 0.10000037
993 139.705062866 27.464788 1.3333334 0.10000035
992 139.705062866 27.464788 2.0 0.10000035
481 139.705062866 14.788733 -1.3333334 0.2000002
482 139.705062866 14.788733 -2.0 0.2000002
489 139.705062866 23.943663 -0.6666667 3.0379843e-07
488 139.705062866 12.676056 -2.0 0.20000017
732 136.945114136 22.535212 0.6666667 0.20000029
733 136.945114136 21.830986 2.0 0.20000029
740 136.945114136 20.422535 1.3333334 0.20000026
739 136.945114136 20.422535 2.0 0.20000026
228 136.945114136 3.5211267 2.0 4.4676238e-08
229 136.945114136 3.5211267 1.3333334 4.4676238e-08
236 136.945114136 2.1126761 0.6666667 2.6805743e-08
235 136.945114136 2.1126761 1.3333334 2.6805743e-08
992 136.945159912 27.464788 2.0 0.10000035
993 136.945159912 27.464788 1.3333334 0.10000035
1000 136.945159912 26.056337 0.6666667 0.10000033
999 136.945159912 26.056337 1.3333334 0.10000033
488 136.945159912 12.676056 -2.0 0.20000017
489 136.945159912 23.943663 -0.6666667 3.0379843e-07
496 136.945159912 21.12676 0.0 2.6805742e-07
495 136.945159912 21.830986 -0.6666667 2.769927e-07
1236 140.234115601 39.43662 0.6666667 5.0037386e-07
1237 140.234115601 38.732395 2.0 4.9143864e-07
1244 140.234115601 37.323944 1.3333334 4.7356812e-07
1243 140.234115601 37.323944 2.0 4.7356812e-07
732 140.234115601 22.535212 0.6666667 0.20000029
733 140.234115601 21.830986 2.0 0.20000029
740 140.234115601 20.422535 1.3333334 0.20000026
739 140.234115601 20.422535 2.0 0.20000026
1243 140.42376709 37.323944 2.0 4.7356812e-07
1244 140.42376709 37.323944 1.3333334 4.7356812e-07
1251 140.42376709 42.957745 0.6666667 0.100000545
1250 140.42376709 42.957745 1.3333334 0.100000545
739 140.42376709 20.422535 2.0 0.20000026
740 140.42376709 20.422535 1.3333334 0.20000026
747 140.42376709 19.014084 0.6666667 0.20000024
746 140.42376709 19.014084 1.3333334 0.20000024
1496 140.234405518 48.59155 2.0 0.20000061
1497 140.234405518 48.59155 1.3333334 0.20000061
1504 140.234405518 47.887325 1.3333334 0.20000061
1503 140.234405518 47.887325 2.0 0.20000061
992 140.234405518 27.464788 2.0 0.10000035
993 140.234405518 27.464788 1.3333334 0.10000035
1000 140.234405518 26.056337 0.6666667 0.10000033
999 140.234405518 26.056337 1.3333334 0.10000033
1503 140.424041748 47.887325 2.0 0.20000061
1504 140.424041748 47.887325 1.3333334 0.20000061
1511 140.424041748 47.183098 -1.3333334 0.2000006
1510 140.424041748 47.183098 -0.6666667 0.2000006
999 140.424041748 26.056337 1.3333334 0.10000033
1000 140.424041748 26.056337 0.6666667 0.10000033
1007 140.424041748 30.28169 0.6666667 0.20000039
1006 140.424041748 30.28169 1.3333334 0.20000039
740 141.540847778 20.422535 1.3333334 0.20000026
741 141.540847778 20.422535 0.6666667 0.20000026
748 141.540847778 35.915493 -1.3333334 4.5569763e-07
747 141.540847778 19.014084 0.6666667 0.20000024
236 141.540847778 2.1126761 0.6666667 2.6805743e-08
237 141.540847778 1.4084507 2.0 1.7870496e-08
244 141.540847778 0.0 1.3333334 0.0
243 141.540847778 0.0 2.0 0.0
1000 141.541107178 26.056337 0.6666667 0.10000033
1001 141.541107178 25.352112 2.0 0.10000032
1008 141.541107178 29.577465 2.0 0.20000038
1007 141.541107178 30.28169 0.6666667 0.20000039
496 141.541107178 21.12676 0.0 2.6805742e-07
497 141.541107178 21.12676 -0.6666667 2.6805742e-07
504 141.541107178 18.309858 0.0 2.3231642e-07
503 141.541107178 19.014084 -0.6666667 2.4125168e-07
1244 141.540847778 37.323944 1.3333334 4.7356812e-07
1245 141.540847778 37.323944 0.6666667 4.7356812e-07
1252 141.540847778 42.25352 2.0 0.10000054
1251 141.540847778 42.957745 0.6666667 0.100000545
740 141.540847778 20.422535 1.3333334 0.20000026
741 141.540847778 20.422535 0.6666667 0.20000026
748 141.540847778 35.915493 -1.3333334 4.5569763e-07
747 141.540847778 19.014084 0.6666667 0.20000024
1504 141.541107178 47.887325 1.3333334 0.20000061
1505 141.541107178 47.887325 0.6666667 0.20000061
1512 141.541107178 47.183098 -2.0 0.2000006
1511 141.541107178 47.183098 -1.3333334 0.2000006
1000 141.541107178 26.056337 0.6666667 0.10000033
1001 141.541107178 25.352112 2.0 0.10000032
1008 141.541107178 29.577465 2.0 0.20000038
1007 141.541107178 30.28169 0.6666667 0.20000039
746 140.42376709 19.014084 1.3333334 0.20000024
747 140.42376709 19.014084 0.6666667 0.20000024
754 140.42376709 33.80282 -1.3333334 4.2889192e-07
753 140.42376709 34.507042 -2.0 4.3782714e-07
242 140.42376709 0.70422536 0.6666667 8.935248e-09
243 140.42376709 0.0 2.0 0.0
250 140.42376709 5.633803 1.3333334 0.100000076
249 140.42376709 5.633803 2.0 0.100000076
993 140.424041748 27.464788 1.3333334 0.10000035
994 140.424041748 27.464788 0.6666667 0.10000035
1001 140.424041748 25.352112 2.0 0.10000032
1000 140.424041748 26.056337 0.6666667 0.10000033
489 140.424041748 23.943663 -0.6666667 3.0379843e-07
490 140.424041748 23.239437 0.0 2.9486318e-07
497 140.424041748 21.12676 -0.6666667 2.6805742e-07
496 140.424041748 21.12676 0.0 2.6805742e-07
698 139.606445312 23.943663 2.0 0.10000031
699 139.606445312 23.943663 1.3333334 0.10000031
706 139.606445312 22.535212 0.6666667 0.100000285
705 139.606445312 22.535212 1.3333334 0.100000285
194 139.606445312 7.746479 -0.6666667 0.2000001
195 139.606445312 7.0422535 0.0 0.20000009
202 139.606445312 4.9295774 -0.6666667 0.20000006
201 139.606445312 4.9295774 0.0 0.20000006
964 139.606536865 28.169014 0.6666667 3.574099e-07
965 139.606536865 27.464788 2.0 3.4847466e-07
972 139.606536865 26.056337 1.3333334 3.3060417e-07
971 139.606536865 26.056337 2.0 3.3060417e-07
460 139.606536865 22.535212 -2.0 0.20000029
461 139.606536865 21.830986 -1.3333334 0.20000029
468 139.606536865 19.71831 -2.0 0.20000026
467 139.606536865 19.71831 -1.3333334 0.20000026
1215 136.926376343 37.323944 0.0 0.20000048
1216 136.926376343 37.323944 -0.6666667 0.20000048
1223 136.926376343 42.25352 1.3333334 5.3611484e-07
1222 136.926376343 42.25352 2.0 5.3611484e-07
711 136.926376343 21.12676 1.3333334 0.10000027
712 136.926376343 21.12676 0.6666667 0.10000027
719 136.926376343 19.014084 2.0 0.10000024
718 136.926376343 19.71831 0.6666667 0.100000255
1481 136.926345825 47.183098 -2.0 0.1000006
1482 136.926345825 50.0 2.0 0.20000064
1489 136.926345825 49.295776 2.0 0.20000063
1488 136.926345825 50.0 -2.0 0.20000064
977 136.926345825 24.647888 2.0 3.1273368e-07
978 136.926345825 24.647888 1.3333334 3.1273368e-07
985 136.926345825 29.577465 0.6666667 0.100000374
984 136.926345825 29.577465 1.3333334 0.100000374
1223 140.143676758 42.25352 1.3333334 5.3611484e-07
1224 140.143676758 42.25352 0.6666667 5.3611484e-07
1231 140.143676758 40.140846 2.0 5.0930913e-07
1230 140.143676758 40.84507 0.6666667 5.1824435e-07
719 140.143676758 19.014084 2.0 0.10000024
720 140.143676758 19.014084 1.3333334 0.10000024
727 140.143676758 23.239437 2.0 0.2000003
726 140.143676758 23.943663 0.6666667 0.2000003
1489 140.143814087 49.295776 2.0 0.20000063
1490 140.143814087 49.295776 1.3333334 0.20000063
1497 140.143814087 48.59155 1.3333334 0.20000061
1496 140.143814087 48.59155 2.0 0.20000061
985 140.143814087 29.577465 0.6666667 0.100000374
986 140.143814087 28.87324 2.0 0.10000037
993 140.143814087 27.464788 1.3333334 0.10000035
992 140.143814087 27.464788 2.0 0.10000035
733 136.073806763 21.830986 2.0 0.20000029
734 136.073806763 21.830986 1.3333334 0.20000029
741 136.073806763 20.422535 0.6666667 0.20000026
740 136.073806763 20.422535 1.3333334 0.20000026
229 136.073806763 3.5211267 1.3333334 4.4676238e-08
230 136.073806763 3.5211267 0.6666667 4.4676238e-08
237 136.073806763 1.4084507 2.0 1.7870496e-08
236 136.073806763 2.1126761 0.6666667 2.6805743e-08
999 136.073852539 26.056337 1.3333334 0.10000033
1000 136.073852539 26.056337 0.6666667 0.10000033
1007 136.073852539 30.28169 0.6666667 0.20000039
1006 136.073852539 30.28169 1.3333334 0.20000039
495 136.073852539 21.830986 -0.6666667 2.769927e-07
496 136.073852539 21.12676 0.0 2.6805742e-07
503 136.073852539 19.014084 -0.6666667 2.4125168e-07
502 136.073852539 19.014084 0.0 2.4125168e-07
1250 140.234115601 42.957745 1.3333334 0.100000545
1251 140.234115601 42.957745 0.6666667 0.100000545
1258 140.234115601 40.84507 2.0 0.100000516
1257 140.234115601 41.549297 0.6666667 0.10000053
746 140.234115601 19.014084 1.3333334 0.20000024
747 140.234115601 19.014084 0.6666667 0.20000024
754 140.234115601 33.80282 -1.3333334 4.2889192e-07
753 140.234115601 34.507042 -2.0 4.3782714e-07
1497 140.234405518 48.59155 1.3333334 0.20000061
1498 140.234405518 48.59155 0.6666667 0.20000061
1505 140.234405518 47.887325 0.6666667 0.20000061
1504 140.234405518 47.887325 1.3333334 0.20000061
993 140.234405518 27.464788 1.3333334 0.10000035
994 140.234405518 27.464788 0.6666667 0.10000035
1001 140.234405518 25.352112 2.0 0.10000032
1000 140.234405518 26.056337 0.6666667 0.10000033
754 138.482025146 33.80282 -1.3333334 4.2889192e-07
755 138.482025146 33.80282 -2.0 4.2889192e-07
762 138.482025146 30.985916 -1.3333334 3.931509e-07
761 138.482025146 31.690142 -2.0 4.0208616e-07
250 138.482025146 5.633803 1.3333334 0.100000076
251 138.482025146 5.633803 0.6666667 0.100000076
258 138.482025146 3.5211267 2.0 0.100000046
257 138.482025146 4.2253523 0.6666667 0.10000005
761 133.488739014 31.690142 -2.0 4.0208616e-07
762 133.488739014 30.985916 -1.3333334 3.931509e-07
769 133.488739014 28.87324 -2.0 3.6634515e-07
768 133.488739014 28.87324 -1.3333334 3.6634515e-07
257 133.488739014 4.2253523 0.6666667 0.10000005
258 133.488739014 3.5211267 2.0 0.100000046
265 133.488739014 2.1126761 1.3333334 0.10000003
264 133.488739014 2.1126761 2.0 0.10000003
747 133.488739014 19.014084 0.6666667 0.20000024
748 133.488739014 35.915493 -1.3333334 4.5569763e-07
755 133.488739014 33.80282 -2.0 4.2889192e-07
754 133.488739014 33.80282 -1.3333334 4.2889192e-07
243 133.488739014 0.0 2.0 0.0
244 133.488739014 0.0 1.3333334 0.0
251 133.488739014 5.633803 0.6666667 0.100000076
250 133.488739014 5.633803 1.3333334 0.100000076
1251 137.009140015 42.957745 0.6666667 0.100000545
1252 137.009140015 42.25352 2.0 0.10000054
1259 137.009140015 40.84507 1.3333334 0.100000516
1258 137.009140015 40.84507 2.0 0.100000516
747 137.009140015 19.014084 0.6666667 0.20000024
748 137.009140015 35.915493 -1.3333334 4.5569763e-07
755 137.009140015 33.80282 -2.0 4.2889192e-07
754 137.009140015 33.80282 -1.3333334 4.2889192e-07
986 133.489028931 28.87324 2.0 0.10000037
987 133.489028931 28.87324 1.3333334 0.10000037
994 133.489028931 27.464788 0.6666667 0.10000035
993 133.489028931 27.464788 1.3333334 0.10000035
482 133.489028931 14.788733 -2.0 0.2000002
483 133.489028931 14.084507 -1.3333334 0.20000018
490 133.489028931 23.239437 0.0 2.9486318e-07
489 133.489028931 23.943663 -0.6666667 3.0379843e-07
1490 137.009414673 49.295776 1.3333334 0.20000063
1491 137.009414673 49.295776 0.6666667 0.20000063
1498 137.009414673 48.59155 0.6666667 0.20000061
1497 137.009414673 48.59155 1.3333334 0.20000061
986 137.009414673 28.87324 2.0 0.10000037
987 137.009414673 28.87324 1.3333334 0.10000037
994 137.009414673 27.464788 0.6666667 0.10000035
993 137.009414673 27.464788 1.3333334 0.10000035
1257 138.328140259 41.549297 0.6666667 0.10000053
1258 138.328140259 40.84507 2.0 0.100000516
1265 138.328140259 39.43662 1.3333334 0.1000005
1264 138.328140259 39.43662 2.0 0.1000005
753 138.328140259 34.507042 -2.0 4.3782714e-07
754 138.328140259 33.80282 -1.3333334 4.2889192e-07
761 138.328140259 31.690142 -2.0 4.0208616e-07
760 138.328140259 31.690142 -1.3333334 4.0208616e-07
1258 141.221801758 40.84507 2.0 0.100000516
1259 141.221801758 40.84507 1.3333334 0.100000516
1266 141.221801758 39.43662 0.6666667 0.1000005
1265 141.221801758 39.43662 1.3333334 0.1000005
754 141.221801758 33.80282 -1.3333334 4.2889192e-07
755 141.221801758 33.80282 -2.0 4.2889192e-07
762 141.221801758 30.985916 -1.3333334 3.931509e-07
761 141.221801758 31.690142 -2.0 4.0208616e-07
965 138.328872681 27.464788 2.0 3.4847466e-07
966 138.328872681 27.464788 1.3333334 3.4847466e-07
973 138.328872681 26.056337 0.6666667 3.3060417e-07
972 138.328872681 26.056337 1.3333334 3.3060417e-07
461 138.328872681 21.830986 -1.3333334 0.20000029
462 138.328872681 21.830986 -2.0 0.20000029
469 138.328872681 19.014084 -1.3333334 0.20000024
468 138.328872681 19.71831 -2.0 0.20000026
1469 141.222518921 48.59155 -0.6666667 0.10000062
1470 141.222518921 48.59155 -1.3333334 0.10000062
1477 141.222518921 47.887325 -1.3333334 0.100000605
1476 141.222518921 47.887325 -0.6666667 0.100000605
965 141.222518921 27.464788 2.0 3.4847466e-07
966 141.222518921 27.464788 1.3333334 3.4847466e-07
973 141.222518921 26.056337 0.6666667 3.3060417e-07
972 141.222518921 26.056337 1.3333334 3.3060417e-07
753 138.482025146 34.507042 -2.0 4.3782714e-07
754 138.482025146 33.80282 -1.3333334 4.2889192e-07
761 138.482025146 31.690142 -2.0 4.0208616e-07
760 138.482025146 31.690142 -1.3333334 4.0208616e-07
249 138.482025146 5.633803 2.0 0.100000076
250 138.482025146 5.633803 1.3333334 0.100000076
257 138.482025146 4.2253523 0.6666667 0.10000005
256 138.482025146 4.2253523 1.3333334 0.10000005
979 138.482284546 24.647888 0.6666667 3.1273368e-07
980 138.482284546 30.28169 2.0 0.10000039
987 138.482284546 28.87324 1.3333334 0.10000037
986 138.482284546 28.87324 2.0 0.10000037
475 138.482284546 16.90141 -1.3333334 0.20000021
476 138.482284546 16.90141 -2.0 0.20000021
483 138.482284546 14.084507 -1.3333334 0.20000018
482 138.482284546 14.788733 -2.0 0.2000002
1265 144.833877563 39.43662 1.3333334 0.1000005
1266 144.833877563 39.43662 0.6666667 0.1000005
1273 144.833877563 37.323944 2.0 0.10000047
1272 144.833877563 38.028168 0.6666667 0.100000486
761 144.833877563 31.690142 -2.0 4.0208616e-07
762 144.833877563 30.985916 -1.3333334 3.931509e-07
769 144.833877563 28.87324 -2.0 3.6634515e-07
768 144.833877563 28.87324 -1.3333334 3.6634515e-07
958 144.834579468 29.577465 0.6666667 3.7528042e-07
959 144.834579468 28.87324 2.0 3.6634515e-07
966 144.834579468 27.464788 1.3333334 3.4847466e-07
965 144.834579468 27.464788 2.0 3.4847466e-07
454 144.834579468 24.647888 -2.0 0.20000032
455 144.834579468 23.943663 -1.3333334 0.2000003
462 144.834579468 21.830986 -2.0 0.20000029
461 144.834579468 21.830986 -1.3333334 0.20000029
657 127.637001038 15.492958 2.0 0.2000002
658 127.637001038 15.492958 1.3333334 0.2000002
665 127.637001038 14.084507 0.6666667 0.20000018
664 127.637001038 14.084507 1.3333334 0.20000018
153 127.637001038 9.154929 0.0 0.10000012
154 127.637001038 9.154929 -0.6666667 0.10000012
161 127.637001038 6.338028 0.0 0.10000008
160 127.637001038 7.0422535 -0.6666667 0.10000009
1161 136.975631714 40.84507 -1.3333334 0.100000516
1162 136.975631714 40.84507 -2.0 0.100000516
1169 136.975631714 39.43662 -1.3333334 0.1000005
1168 136.975631714 39.43662 -0.6666667 0.1000005
657 136.975631714 15.492958 2.0 0.2000002
658 136.975631714 15.492958 1.3333334 0.2000002
665 136.975631714 14.084507 0.6666667 0.20000018
664 136.975631714 14.084507 1.3333334 0.20000018
944 127.638061523 28.87324 -0.6666667 0.20000038
945 127.638061523 28.169014 0.0 0.20000036
952 127.638061523 25.352112 -0.6666667 0.20000033
951 127.638061523 25.352112 0.0 0.20000033
440 127.638061523 16.90141 -2.0 0.10000022
441 127.638061523 16.197184 -1.3333334 0.10000021
448 127.638061523 14.084507 -2.0 0.10000018
447 127.638061523 14.084507 -1.3333334 0.10000018
1448 136.976654053 47.183098 -0.6666667 5.986616e-07
1449 136.976654053 47.183098 -1.3333334 5.986616e-07
1456 136.976654053 50.0 -1.3333334 0.100000635
1455 136.976654053 50.0 -0.6666667 0.100000635
944 136.976654053 28.87324 -0.6666667 0.20000038
945 136.976654053 28.169014 0.0 0.20000036
952 136.976654053 25.352112 -0.6666667 0.20000033
951 136.976654053 25.352112 0.0 0.20000033
664 137.467208862 14.084507 1.3333334 0.20000018
665 137.467208862 14.084507 0.6666667 0.20000018
672 137.467208862 23.943663 1.3333334 3.0379843e-07
671 137.467208862 23.943663 2.0 3.0379843e-07
160 137.467208862 7.0422535 -0.6666667 0.10000009
161 137.467208862 6.338028 0.0 0.10000008
168 137.467208862 4.2253523 -0.6666667 0.10000005
167 137.467208862 4.2253523 0.0 0.10000005
937 137.468185425 30.985916 0.0 0.20000039
938 137.468185425 30.985916 -0.6666667 0.20000039
945 137.468185425 28.169014 0.0 0.20000036
944 137.468185425 28.87324 -0.6666667 0.20000038
433 137.468185425 19.014084 -1.3333334 0.10000024
434 137.468185425 19.014084 -2.0 0.10000024
441 137.468185425 16.197184 -1.3333334 0.10000021
440 137.468185425 16.90141 -2.0 0.10000022
1147 144.833877563 42.957745 0.0 0.100000545
1148 144.833877563 42.957745 -0.6666667 0.100000545
1155 144.833877563 41.549297 0.0 0.10000053
1154 144.833877563 42.25352 -2.0 0.10000054
643 144.833877563 12.676056 2.0 0.100000165
644 144.833877563 12.676056 1.3333334 0.100000165
651 144.833877563 16.90141 2.0 0.20000021
650 144.833877563 17.605635 0.6666667 0.20000023
1483 138.482284546 50.0 1.3333334 0.20000064
1484 138.482284546 50.0 0.6666667 0.20000064
1491 138.482284546 49.295776 0.6666667 0.20000063
1490 138.482284546 49.295776 1.3333334 0.20000063
979 138.482284546 24.647888 0.6666667 3.1273368e-07
980 138.482284546 30.28169 2.0 0.10000039
987 138.482284546 28.87324 1.3333334 0.10000037
986 138.482284546 28.87324 2.0 0.10000037
1462 144.834579468 49.295776 -0.6666667 0.10000063
1463 144.834579468 49.295776 -1.3333334 0.10000063
1470 144.834579468 48.59155 -1.3333334 0.10000062
1469 144.834579468 48.59155 -0.6666667 0.10000062
958 144.834579468 29.577465 0.6666667 3.7528042e-07
959 144.834579468 28.87324 2.0 3.6634515e-07
966 144.834579468 27.464788 1.3333334 3.4847466e-07
965 144.834579468 27.464788 2.0 3.4847466e-07
1168 137.467208862 39.43662 -0.6666667 0.1000005
1169 137.467208862 39.43662 -1.3333334 0.1000005
1176 137.467208862 38.028168 -0.6666667 0.100000486
1175 137.467208862 38.028168 0.0 0.100000486
664 137.467208862 14.084507 1.3333334 0.20000018
665 137.467208862 14.084507 0.6666667 0.20000018
672 137.467208862 23.943663 1.3333334 3.0379843e-07
671 137.467208862 23.943663 2.0 3.0379843e-07
1441 137.468185425 47.887325 -0.6666667 6.0759686e-07
1442 137.468185425 47.887325 -1.3333334 6.0759686e-07
1449 137.468185425 47.183098 -1.3333334 5.986616e-07
1448 137.468185425 47.183098 -0.6666667 5.986616e-07
937 137.468185425 30.985916 0.0 0.20000039
938 137.468185425 30.985916 -0.6666667 0.20000039
945 137.468185425 28.169014 0.0 0.20000036
944 137.468185425 28.87324 -0.6666667 0.20000038
678 138.530441284 22.535212 2.0 2.8592794e-07
679 138.530441284 22.535212 1.3333334 2.8592794e-07
686 138.530441284 21.12676 0.6666667 2.6805742e-07
685 138.530441284 21.12676 1.3333334 2.6805742e-07
174 138.530441284 2.1126761 -0.6666667 0.10000003
175 138.530441284 1.4084507 0.0 0.10000002
182 138.530441284 11.971831 -0.6666667 0.20000015
181 138.530441284 11.971831 0.0 0.20000015
1182 141.924530029 37.323944 -2.0 0.10000047
1183 141.924530029 42.957745 0.0 0.20000055
1190 141.924530029 42.25352 -2.0 0.20000054
1189 141.924530029 42.25352 -1.3333334 0.20000054
678 141.924530029 22.535212 2.0 2.8592794e-07
679 141.924530029 22.535212 1.3333334 2.8592794e-07
686 141.924530029 21.12676 0.6666667 2.6805742e-07
685 141.924530029 21.12676 1.3333334 2.6805742e-07
923 138.532592773 36.619717 -0.6666667 0.20000046
924 138.532592773 35.915493 0.0 0.20000046
931 138.532592773 33.80282 -0.6666667 0.20000044
930 138.532592773 33.80282 0.0 0.20000044
419 138.532592773 23.943663 -1.3333334 0.10000031
420 138.532592773 23.943663 -2.0 0.10000031
427 138.532592773 21.12676 -1.3333334 0.10000027
426 138.532592773 21.830986 -2.0 0.10000028
1427 141.926559448 49.295776 -0.6666667 6.2546735e-07
1428 141.926559448 49.295776 -1.3333334 6.2546735e-07
1435 141.926559448 48.59155 -1.3333334 6.165321e-07
1434 141.926559448 48.59155 -0.6666667 6.165321e-07
923 141.926559448 36.619717 -0.6666667 0.20000046
924 141.926559448 35.915493 0.0 0.20000046
931 141.926559448 33.80282 -0.6666667 0.20000044
930 141.926559448 33.80282 0.0 0.20000044
685 134.938110352 21.12676 1.3333334 2.6805742e-07
686 134.938110352 21.12676 0.6666667 2.6805742e-07
693 134.938110352 19.014084 2.0 2.4125168e-07
692 134.938110352 19.71831 0.6666667 2.5018693e-07
181 134.938110352 11.971831 0.0 0.20000015
182 134.938110352 11.971831 -0.6666667 0.20000015
189 134.938110352 9.154929 0.0 0.20000012
188 134.938110352 9.859155 -0.6666667 0.20000012
916 134.940170288 27.464788 0.0 0.10000035
917 134.940170288 26.760563 0.0 0.100000344
924 134.940170288 35.915493 0.0 0.20000046
923 134.940170288 36.619717 -0.6666667 0.20000046
412 134.940170288 14.084507 -2.0 1.7870495e-07
413 134.940170288 13.380281 -1.3333334 1.697697e-07
420 134.940170288 23.943663 -2.0 0.10000031
419 134.940170288 23.943663 -1.3333334 0.10000031
1189 134.938110352 42.25352 -1.3333334 0.20000054
1190 134.938110352 42.25352 -2.0 0.20000054
1197 134.938110352 40.84507 -1.3333334 0.20000052
1196 134.938110352 40.84507 -0.6666667 0.20000052
685 134.938110352 21.12676 1.3333334 2.6805742e-07
686 134.938110352 21.12676 0.6666667 2.6805742e-07
693 134.938110352 19.014084 2.0 2.4125168e-07
692 134.938110352 19.71831 0.6666667 2.5018693e-07
1420 134.940170288 50.0 -0.6666667 6.3440257e-07
1421 134.940170288 50.0 -1.3333334 6.3440257e-07
1428 134.940170288 49.295776 -1.3333334 6.2546735e-07
1427 134.940170288 49.295776 -0.6666667 6.2546735e-07
916 134.940170288 27.464788 0.0 0.10000035
917 134.940170288 26.760563 0.0 0.100000344
924 134.940170288 35.915493 0.0 0.20000046
923 134.940170288 36.619717 -0.6666667 0.20000046
760 137.009140015 31.690142 -1.3333334 4.0208616e-07
761 137.009140015 31.690142 -2.0 4.0208616e-07
768 137.009140015 28.87324 -1.3333334 3.6634515e-07
767 137.009140015 29.577465 -2.0 3.7528042e-07
256 137.009140015 4.2253523 1.3333334 0.10000005
257 137.009140015 4.2253523 0.6666667 0.10000005
264 137.009140015 2.1126761 2.0 0.10000003
263 137.009140015 2.8169014 0.6666667 0.10000004
650 141.221801758 17.605635 0.6666667 0.20000023
651 141.221801758 16.90141 2.0 0.20000021
658 141.221801758 15.492958 1.3333334 0.2000002
657 141.221801758 15.492958 2.0 0.2000002
146 141.221801758 11.971831 -0.6666667 0.10000015
147 141.221801758 11.267606 0.0 0.10000014
154 141.221801758 9.154929 -0.6666667 0.10000012
153 141.221801758 9.154929 0.0 0.10000012
972 137.009414673 26.056337 1.3333334 3.3060417e-07
973 137.009414673 26.056337 0.6666667 3.3060417e-07
980 137.009414673 30.28169 2.0 0.10000039
979 137.009414673 24.647888 0.6666667 3.1273368e-07
468 137.009414673 19.71831 -2.0 0.20000026
469 137.009414673 19.014084 -1.3333334 0.20000024
476 137.009414673 16.90141 -2.0 0.20000021
475 137.009414673 16.90141 -1.3333334 0.20000021
951 141.222518921 25.352112 0.0 0.20000033
952 141.222518921 25.352112 -0.6666667 0.20000033
959 141.222518921 28.87324 2.0 3.6634515e-07
958 141.222518921 29.577465 0.6666667 3.7528042e-07
447 141.222518921 14.084507 -1.3333334 0.10000018
448 141.222518921 14.084507 -2.0 0.10000018
455 141.222518921 23.943663 -1.3333334 0.2000003
454 141.222518921 24.647888 -2.0 0.20000032
671 136.975631714 23.943663 2.0 3.0379843e-07
672 136.975631714 23.943663 1.3333334 3.0379843e-07
679 136.975631714 22.535212 1.3333334 2.8592794e-07
678 136.975631714 22.535212 2.0 2.8592794e-07
167 136.975631714 4.2253523 0.0 0.10000005
168 136.975631714 4.2253523 -0.6666667 0.10000005
175 136.975631714 1.4084507 0.0 0.10000002
174 136.975631714 2.1126761 -0.6666667 0.10000003
930 136.976654053 33.80282 0.0 0.20000044
931 136.976654053 33.80282 -0.6666667 0.20000044
938 136.976654053 30.985916 -0.6666667 0.20000039
937 136.976654053 30.985916 0.0 0.20000039
426 136.976654053 21.830986 -2.0 0.10000028
427 136.976654053 21.12676 -1.3333334 0.10000027
434 136.976654053 19.014084 -2.0 0.10000024
433 136.976654053 19.014084 -1.3333334 0.10000024
692 141.924530029 19.71831 0.6666667 2.5018693e-07
693 141.924530029 19.014084 2.0 2.4125168e-07
700 141.924530029 23.943663 0.6666667 0.10000031
699 141.924530029 23.943663 1.3333334 0.10000031
188 141.924530029 9.859155 -0.6666667 0.20000012
189 141.924530029 9.154929 0.0 0.20000012
196 141.924530029 7.0422535 -0.6666667 0.20000009
195 141.924530029 7.0422535 0.0 0.20000009
909 141.926559448 30.28169 -0.6666667 0.10000039
910 141.926559448 29.577465 0.0 0.100000374
917 141.926559448 26.760563 0.0 0.100000344
916 141.926559448 27.464788 0.0 0.10000035
405 141.926559448 16.197184 -1.3333334 2.055107e-07
406 141.926559448 16.197184 -2.0 2.055107e-07
413 141.926559448 13.380281 -1.3333334 1.697697e-07
412 141.926559448 14.084507 -2.0 1.7870495e-07
699 138.670028687 23.943663 1.3333334 0.10000031
700 138.670028687 23.943663 0.6666667 0.10000031
707 138.670028687 21.830986 2.0 0.10000028
706 138.670028687 22.535212 0.6666667 0.100000285
195 138.670028687 7.0422535 0.0 0.20000009
196 138.670028687 7.0422535 -0.6666667 0.20000009
203 138.670028687 4.2253523 0.0 0.20000006
202 138.670028687 4.9295774 -0.6666667 0.20000006
1203 117.214782715 39.43662 0.0 0.20000051
1204 117.214782715 39.43662 -0.6666667 0.20000051
1211 117.214782715 38.028168 0.0 0.20000048
1210 117.214782715 38.732395 -2.0 0.2000005
699 117.214782715 23.943663 1.3333334 0.10000031
700 117.214782715 23.943663 0.6666667 0.10000031
707 117.214782715 21.830986 2.0 0.10000028
706 117.214782715 22.535212 0.6666667 0.100000285
902 138.67326355 32.394367 0.0 0.10000041
903 138.67326355 32.394367 -0.6666667 0.10000041
910 138.67326355 29.577465 0.0 0.100000374
909 138.67326355 30.28169 -0.6666667 0.10000039
398 138.67326355 19.014084 -2.0 2.4125168e-07
399 138.67326355 18.309858 -1.3333334 2.3231642e-07
406 138.67326355 16.197184 -2.0 2.055107e-07
405 138.67326355 16.197184 -1.3333334 2.055107e-07
1406 117.218208313 44.366196 -0.6666667 0.20000057
1407 117.218208313 44.366196 -1.3333334 0.20000057
1414 117.218208313 43.661972 -1.3333334 0.20000055
1413 117.218208313 43.661972 -0.6666667 0.20000055
902 117.218208313 32.394367 0.0 0.10000041
903 117.218208313 32.394367 -0.6666667 0.10000041
910 117.218208313 29.577465 0.0 0.100000374
909 117.218208313 30.28169 -0.6666667 0.10000039
706 113.786453247 22.535212 0.6666667 0.100000285
707 113.786453247 21.830986 2.0 0.10000028
714 113.786453247 20.422535 1.3333334 0.10000026
713 113.786453247 20.422535 2.0 0.10000026
202 113.786453247 4.9295774 -0.6666667 0.20000006
203 113.786453247 4.2253523 0.0 0.20000006
210 113.786453247 2.1126761 -0.6666667 0.20000003
209 113.786453247 2.1126761 0.0 0.20000003
888 113.789985657 24.647888 0.0 3.1273368e-07
889 113.789985657 24.647888 -0.6666667 3.1273368e-07
896 113.789985657 34.507042 0.0 0.10000044
895 113.789985657 35.21127 -0.6666667 0.10000045
384 113.789985657 23.943663 -2.0 3.0379843e-07
385 113.789985657 23.239437 -1.3333334 2.9486318e-07
392 113.789985657 21.12676 -2.0 2.6805742e-07
391 113.789985657 21.12676 -1.3333334 2.6805742e-07
1210 113.786453247 38.732395 -2.0 0.2000005
1211 113.786453247 38.028168 0.0 0.20000048
1218 113.786453247 37.323944 -2.0 0.20000048
1217 113.786453247 37.323944 -1.3333334 0.20000048
706 113.786453247 22.535212 0.6666667 0.100000285
707 113.786453247 21.830986 2.0 0.10000028
714 113.786453247 20.422535 1.3333334 0.10000026
713 113.786453247 20.422535 2.0 0.10000026
895 113.789985657 35.21127 -0.6666667 0.10000045
896 113.789985657 34.507042 0.0 0.10000044
903 113.789985657 32.394367 -0.6666667 0.10000041
902 113.789985657 32.394367 0.0 0.10000041
391 113.789985657 21.12676 -1.3333334 2.6805742e-07
392 113.789985657 21.12676 -2.0 2.6805742e-07
399 113.789985657 18.309858 -1.3333334 2.3231642e-07
398 113.789985657 19.014084 -2.0 2.4125168e-07
713 117.214782715 20.422535 2.0 0.10000026
714 117.214782715 20.422535 1.3333334 0.10000026
721 117.214782715 19.014084 0.6666667 0.10000024
720 117.214782715 19.014084 1.3333334 0.10000024
209 117.214782715 2.1126761 0.0 0.20000003
210 117.214782715 2.1126761 -0.6666667 0.20000003
217 117.214782715 6.338028 2.0 8.041723e-08
216 117.214782715 -2.5376103e-09 -0.6666667 0.2
1399 117.218208313 45.070423 -0.6666667 0.20000057
1400 117.218208313 45.070423 -1.3333334 0.20000057
1407 117.218208313 44.366196 -1.3333334 0.20000057
1406 117.218208313 44.366196 -0.6666667 0.20000057
895 117.218208313 35.21127 -0.6666667 0.10000045
896 117.218208313 34.507042 0.0 0.10000044
903 117.218208313 32.394367 -0.6666667 0.10000041
902 117.218208313 32.394367 0.0 0.10000041
1154 138.328140259 42.25352 -2.0 0.10000054
1155 138.328140259 41.549297 0.0 0.10000053
1162 138.328140259 40.84507 -2.0 0.100000516
1161 138.328140259 40.84507 -1.3333334 0.100000516
650 138.328140259 17.605635 0.6666667 0.20000023
651 138.328140259 16.90141 2.0 0.20000021
658 138.328140259 15.492958 1.3333334 0.2000002
657 138.328140259 15.492958 2.0 0.2000002
1476 133.489028931 47.887325 -0.6666667 0.100000605
1477 133.489028931 47.887325 -1.3333334 0.100000605
1484 133.489028931 50.0 0.6666667 0.20000064
1483 133.489028931 50.0 1.3333334 0.20000064
972 133.489028931 26.056337 1.3333334 3.3060417e-07
973 133.489028931 26.056337 0.6666667 3.3060417e-07
980 133.489028931 30.28169 2.0 0.10000039
979 133.489028931 24.647888 0.6666667 3.1273368e-07
1455 138.328872681 50.0 -0.6666667 0.100000635
1456 138.328872681 50.0 -1.3333334 0.100000635
1463 138.328872681 49.295776 -1.3333334 0.10000063
1462 138.328872681 49.295776 -0.6666667 0.10000063
951 138.328872681 25.352112 0.0 0.20000033
952 138.328872681 25.352112 -0.6666667 0.20000033
959 138.328872681 28.87324 2.0 3.6634515e-07
958 138.328872681 29.577465 0.6666667 3.7528042e-07
1175 127.637008667 38.028168 0.0 0.100000486
1176 127.637008667 38.028168 -0.6666667 0.100000486
1183 127.637008667 42.957745 0.0 0.20000055
1182 127.637008667 37.323944 -2.0 0.10000047
671 127.637008667 23.943663 2.0 3.0379843e-07
672 127.637008667 23.943663 1.3333334 3.0379843e-07
679 127.637008667 22.535212 1.3333334 2.8592794e-07
678 127.637008667 22.535212 2.0 2.8592794e-07
1434 127.638061523 48.59155 -0.6666667 6.165321e-07
1435 127.638061523 48.59155 -1.3333334 6.165321e-07
1442 127.638061523 47.887325 -1.3333334 6.0759686e-07
1441 127.638061523 47.887325 -0.6666667 6.0759686e-07
930 127.638061523 33.80282 0.0 0.20000044
931 127.638061523 33.80282 -0.6666667 0.20000044
938 127.638061523 30.985916 -0.6666667 0.20000039
937 127.638061523 30.985916 0.0 0.20000039
1196 138.530441284 40.84507 -0.6666667 0.20000052
1197 138.530441284 40.84507 -1.3333334 0.20000052
1204 138.530441284 39.43662 -0.6666667 0.20000051
1203 138.530441284 39.43662 0.0 0.20000051
692 138.530441284 19.71831 0.6666667 2.5018693e-07
693 138.530441284 19.014084 2.0 2.4125168e-07
700 138.530441284 23.943663 0.6666667 0.10000031
699 138.530441284 23.943663 1.3333334 0.10000031
1413 138.532592773 43.661972 -0.6666667 0.20000055
1414 138.532592773 43.661972 -1.3333334 0.20000055
1421 138.532592773 50.0 -1.3333334 6.3440257e-07
1420 138.532592773 50.0 -0.6666667 6.3440257e-07
909 138.532592773 30.28169 -0.6666667 0.10000039
910 138.532592773 29.577465 0.0 0.100000374
917 138.532592773 26.760563 0.0 0.100000344
916 138.532592773 27.464788 0.0 0.10000035
1217 138.670028687 37.323944 -1.3333334 0.20000048
1218 138.670028687 37.323944 -2.0 0.20000048
1225 138.670028687 41.549297 2.0 5.271796e-07
1224 138.670028687 42.25352 0.6666667 5.3611484e-07
713 138.670028687 20.422535 2.0 0.10000026
714 138.670028687 20.422535 1.3333334 0.10000026
721 138.670028687 19.014084 0.6666667 0.10000024
720 138.670028687 19.014084 1.3333334 0.10000024
1392 138.67326355 45.774647 -0.6666667 0.20000058
1393 138.67326355 45.774647 -1.3333334 0.20000058
1400 138.67326355 45.070423 -1.3333334 0.20000057
1399 138.67326355 45.070423 -0.6666667 0.20000057
888 138.67326355 24.647888 0.0 3.1273368e-07
889 138.67326355 24.647888 -0.6666667 3.1273368e-07
896 138.67326355 34.507042 0.0 0.10000044
895 138.67326355 35.21127 -0.6666667 0.10000045
