Node_ID,S_Mises,Orig.X,Orig.Y,Orig.Z
1,138.563171387,11.971831,-1.3333334,1.5189921e-07
2,136.745376587,11.971831,-2.0,1.5189921e-07
3,136.742385864,11.267606,-1.3333334,1.4296397e-07
4,137.7862854,11.267606,-2.0,1.4296397e-07
5,137.2567214965,10.56338,-1.3333334,1.3402871e-07
6,137.256744385,10.56338,-2.0,1.3402871e-07
7,137.015426636,9.859155,-1.3333334,1.2509346e-07
8,126.14151763950001,9.859155,-2.0,1.2509346e-07
9,132.1142082215,9.154929,-1.3333334,1.1615821e-07
10,138.30728912325,9.154929,-2.0,1.1615821e-07
11,136.89404678325,8.450705,-1.3333334,1.0722298e-07
12,137.11244964600002,8.450705,-2.0,1.0722298e-07
13,139.12325286875,7.746479,-1.3333334,9.828773e-08
14,139.282020569,7.746479,-2.0,9.828773e-08
15,115.4294166565,7.0422535,-1.3333334,8.9352476e-08
16,129.2408008575,7.0422535,-2.0,8.9352476e-08
17,141.2098846435,6.338028,-1.3333334,8.041723e-08
18,137.2980041505,6.338028,-2.0,8.041723e-08
19,137.75762176525,5.633803,-1.3333334,7.1481985e-08
20,140.4572143555,5.633803,-2.0,7.1481985e-08
21,140.627609253,4.9295774,-1.3333334,6.254673e-08
22,127.848041534,4.9295774,-2.0,6.254673e-08
23,134.72445869425,4.2253523,-1.3333334,5.361149e-08
24,140.0975379945,4.2253523,-2.0,5.361149e-08
25,138.4616012575,3.5211267,-1.3333334,4.4676238e-08
26,138.5037765505,3.5211267,-2.0,4.4676238e-08
27,138.56951904325,2.8169014,-1.3333334,3.5740992e-08
28,138.460487366,2.8169014,-2.0,3.5740992e-08
29,140.2417144775,2.1126761,-1.3333334,2.6805743e-08
30,138.08311462400002,2.1126761,-2.0,2.6805743e-08
31,136.505279541,1.4084507,-1.3333334,1.7870496e-08
32,137.702030182,1.4084507,-2.0,1.7870496e-08
33,138.36378479025,0.70422536,-1.3333334,8.935248e-09
34,138.32870483425,0.70422536,-2.0,8.935248e-09
35,138.2478561405,0.0,-1.3333334,0.0
36,139.6457595825,0.0,-2.0,0.0
37,137.94567489625,11.971831,-1.3333334,0.10000015
38,136.84851074225,11.971831,-2.0,0.10000015
39,137.41302871725,11.267606,-1.3333334,0.10000014
40,138.04139709475,11.267606,-2.0,0.10000014
41,138.59496307375,10.56338,-1.3333334,0.100000136
42,138.48175811800002,10.56338,-2.0,0.100000136
43,137.45413208000002,9.859155,-1.3333334,0.10000013
44,138.1614341735,9.859155,-2.0,0.10000013
45,138.354373932,9.154929,-1.3333334,0.10000012
46,138.0429534915,9.154929,-2.0,0.10000012
47,138.224948883,8.450705,-1.3333334,0.100000106
48,138.171646118,8.450705,-2.0,0.100000106
49,138.139289856,7.746479,-1.3333334,0.1000001
50,137.5496826175,7.746479,-2.0,0.1000001
51,138.15449523925,7.0422535,-1.3333334,0.10000009
52,138.39915847775,7.0422535,-2.0,0.10000009
53,138.3212776185,6.338028,-1.3333334,0.10000008
54,138.57310485825002,6.338028,-2.0,0.10000008
55,138.54266357400002,5.633803,-1.3333334,0.100000076
56,138.54266357400002,5.633803,-2.0,0.100000076
57,138.3637161255,4.9295774,-1.3333334,0.10000006
58,138.3525886535,4.9295774,-2.0,0.10000006
59,138.22575759875002,4.2253523,-1.3333334,0.10000005
60,138.236564636,4.2253523,-2.0,0.10000005
61,138.35871887175,3.5211267,-1.3333334,0.100000046
62,138.3471679685,3.5211267,-2.0,0.100000046
63,138.3399734495,2.8169014,-1.3333334,0.10000004
64,139.0685806275,2.8169014,-2.0,0.10000004
65,138.51596832274998,2.1126761,-1.3333334,0.10000003
66,138.04903030375,2.1126761,-2.0,0.10000003
67,138.1717910765,1.4084507,-1.3333334,0.10000002
68,138.26374816875,1.4084507,-2.0,0.10000002
69,138.31274032574999,0.70422536,-1.3333334,0.10000001
70,138.3068618775,0.70422536,-2.0,0.10000001
71,138.62287139900002,-1.2688052e-09,-1.3333334,0.1
72,138.38501358025,-1.2688052e-09,-2.0,0.1
73,138.171821594,11.971831,-1.3333334,0.20000015
74,138.24620819075,11.971831,-2.0,0.20000015
75,138.3566818235,11.267606,-1.3333334,0.20000015
76,138.4054870605,11.267606,-2.0,0.20000015
77,138.393539429,10.56338,-1.3333334,0.20000014
78,138.326965332,10.56338,-2.0,0.20000014
79,138.32728195175,9.859155,-1.3333334,0.20000012
80,138.32621002175,9.859155,-2.0,0.20000012
81,138.3447875975,9.154929,-1.3333334,0.20000012
82,138.36392974825,9.154929,-2.0,0.20000012
83,138.35009384149998,8.450705,-1.3333334,0.2000001
84,138.3370819095,8.450705,-2.0,0.2000001
85,138.3460540775,7.746479,-1.3333334,0.2000001
86,138.3458099365,7.746479,-2.0,0.2000001
87,138.346633911,7.0422535,-1.3333334,0.20000009
88,138.34239196800002,7.0422535,-2.0,0.20000009
89,138.33744430550001,6.338028,-1.3333334,0.20000008
90,138.33776855475,6.338028,-2.0,0.20000008
91,138.337730408,5.633803,-1.3333334,0.20000008
92,138.33100891150002,5.633803,-2.0,0.20000008
93,138.33122253425,4.9295774,-1.3333334,0.20000006
94,138.33057785025,4.9295774,-2.0,0.20000006
95,138.33372497575,4.2253523,-1.3333334,0.20000006
96,138.3375205995,4.2253523,-2.0,0.20000006
97,138.33733367925,3.5211267,-1.3333334,0.20000005
98,138.3373565675,3.5211267,-2.0,0.20000005
99,138.342582703,2.8169014,-1.3333334,0.20000003
100,138.34241867075002,2.8169014,-2.0,0.20000003
101,138.34289550775,2.1126761,-1.3333334,0.20000003
102,138.34044647225,2.1126761,-2.0,0.20000003
103,138.3374671935,1.4084507,-1.3333334,0.20000002
104,138.3375663755,1.4084507,-2.0,0.20000002
105,138.3375549315,0.70422536,-1.3333334,0.20000002
106,138.33372497599998,0.70422536,-2.0,0.20000002
107,138.33385849025,-2.5376103e-09,-1.3333334,0.2
108,138.3334770205,-2.5376103e-09,-2.0,0.2
109,138.335258484,11.971831,0.0,1.5189921e-07
110,138.3375053405,11.971831,-0.6666667,1.5189921e-07
111,138.3374671935,11.267606,0.0,1.4296397e-07
112,138.3374786375,11.267606,-0.6666667,1.4296397e-07
113,138.3403167725,10.56338,0.0,1.3402871e-07
114,138.34022140525,10.56338,-0.6666667,1.3402871e-07
115,138.34049224875,9.859155,0.0,1.2509346e-07
116,138.3391685485,9.859155,-0.6666667,1.2509346e-07
117,138.33746337899998,9.154929,0.0,1.1615821e-07
118,138.3374595645,9.154929,-0.6666667,1.1615821e-07
119,138.33747100850002,8.450705,0.0,1.0722298e-07
120,138.3354644775,8.450705,-0.6666667,1.0722298e-07
121,138.3355407715,7.746479,0.0,9.828773e-08
122,138.33532714825,7.746479,-0.6666667,9.828773e-08
123,138.33625411975,7.0422535,0.0,8.9352476e-08
124,138.33753204375,7.0422535,-0.6666667,8.9352476e-08
125,138.33758163475,6.338028,0.0,8.041723e-08
126,138.3375701905,6.338028,-0.6666667,8.041723e-08
127,138.3389205935,5.633803,0.0,7.1481985e-08
128,138.3391838075,5.633803,-0.6666667,7.1481985e-08
129,138.32693099975,4.9295774,0.0,6.254673e-08
130,138.3259887695,4.9295774,-0.6666667,6.254673e-08
131,138.322696686,4.2253523,0.0,5.361149e-08
132,138.3225898745,4.2253523,-0.6666667,5.361149e-08
133,138.337348938,3.5211267,0.0,4.4676238e-08
134,138.36051178,3.5211267,-0.6666667,4.4676238e-08
135,138.3488616945,2.8169014,0.0,3.5740992e-08
136,138.3244400025,2.8169014,-0.6666667,3.5740992e-08
137,138.45194625850002,2.1126761,0.0,2.6805743e-08
138,138.46408462525,2.1126761,-0.6666667,2.6805743e-08
139,138.35078048725,1.4084507,0.0,1.7870496e-08
140,138.365615845,1.4084507,-0.6666667,1.7870496e-08
141,138.34326934799998,0.70422536,0.0,8.935248e-09
142,138.33411026,0.70422536,-0.6666667,8.935248e-09
143,138.32632064825,0.0,0.0,0.0
144,138.570640564,0.0,-0.6666667,0.0
145,138.6896858215,11.971831,0.0,0.10000015
146,139.1797447205,11.971831,-0.6666667,0.10000015
147,139.7937088015,11.267606,0.0,0.10000014
148,138.3267822265,11.267606,-0.6666667,0.10000014
149,138.33272933975002,10.56338,0.0,0.100000136
150,138.34045791650001,10.56338,-0.6666667,0.100000136
151,138.279296875,9.859155,0.0,0.10000013
152,138.254711151,9.859155,-0.6666667,0.10000013
153,136.36123466499998,9.154929,0.0,0.10000012
154,134.42940139799998,9.154929,-0.6666667,0.10000012
155,138.34011840850002,8.450705,0.0,0.100000106
156,138.3437461855,8.450705,-0.6666667,0.100000106
157,138.34126663199999,7.746479,0.0,0.1000001
158,138.0403900145,7.746479,-0.6666667,0.1000001
159,138.120651245,7.0422535,0.0,0.10000009
160,135.52389335625,7.0422535,-0.6666667,0.10000009
161,132.55210495,6.338028,0.0,0.10000008
162,138.33510589600002,6.338028,-0.6666667,0.10000008
163,138.335521698,5.633803,0.0,0.100000076
164,138.32969665525,5.633803,-0.6666667,0.100000076
165,138.35578155525,4.9295774,0.0,0.10000006
166,138.72870636,4.9295774,-0.6666667,0.10000006
167,138.145362854,4.2253523,0.0,0.10000005
168,137.221420288,4.2253523,-0.6666667,0.10000005
169,138.3389129635,3.5211267,0.0,0.100000046
170,138.33887100200002,3.5211267,-0.6666667,0.100000046
171,138.3390579225,2.8169014,0.0,0.10000004
172,138.70429611225,2.8169014,-0.6666667,0.10000004
173,138.61696624775,2.1126761,0.0,0.10000003
174,137.95883178725,2.1126761,-0.6666667,0.10000003
175,137.75303649900002,1.4084507,0.0,0.10000002
176,138.336273193,1.4084507,-0.6666667,0.10000002
177,138.336425781,0.70422536,0.0,0.10000001
178,138.3365364075,0.70422536,-0.6666667,0.10000001
179,138.3467178345,-1.2688052e-09,0.0,0.1
180,137.90792846675,-1.2688052e-09,-0.6666667,0.1
181,137.09659576425,11.971831,0.0,0.20000015
182,136.73427581800001,11.971831,-0.6666667,0.20000015
183,138.33831787100002,11.267606,0.0,0.20000015
184,138.33820343025002,11.267606,-0.6666667,0.20000015
185,138.33811569225,10.56338,0.0,0.20000014
186,138.455970764,10.56338,-0.6666667,0.20000014
187,138.49272918675,9.859155,0.0,0.20000012
188,138.4214897155,9.859155,-0.6666667,0.20000012
189,138.4313201905,9.154929,0.0,0.20000012
190,138.365890503,9.154929,-0.6666667,0.20000012
191,138.35111236575,8.450705,0.0,0.2000001
192,138.33708572375,8.450705,-0.6666667,0.2000001
193,138.64799499475,7.746479,0.0,0.2000001
194,139.197902679,7.746479,-0.6666667,0.2000001
195,139.86746597275,7.0422535,0.0,0.20000009
196,140.29727935800003,7.0422535,-0.6666667,0.20000009
197,138.358657837,6.338028,0.0,0.20000008
198,138.33617401125002,6.338028,-0.6666667,0.20000008
199,138.31451034525,5.633803,0.0,0.20000008
200,138.04325866675,5.633803,-0.6666667,0.20000008
201,138.08996582025,4.9295774,0.0,0.20000006
202,132.31849288950002,4.9295774,-0.6666667,0.20000006
203,126.228240967,4.2253523,0.0,0.20000006
204,138.368598938,4.2253523,-0.6666667,0.20000006
205,138.35662078875,3.5211267,0.0,0.20000005
206,138.34578323375,3.5211267,-0.6666667,0.20000005
207,137.789718628,2.8169014,0.0,0.20000003
208,137.9549369815,2.8169014,-0.6666667,0.20000003
209,127.088989258,2.1126761,0.0,0.20000003
210,115.500617981,2.1126761,-0.6666667,0.20000003
211,138.3248291015,1.4084507,0.0,0.20000002
212,138.326171875,1.4084507,-0.6666667,0.20000002
213,138.32722091675,0.70422536,0.0,0.20000002
214,138.43750381475002,0.70422536,-0.6666667,0.20000002
215,139.23619079600002,-2.5376103e-09,0.0,0.2
216,133.9575920105,-2.5376103e-09,-0.6666667,0.2
217,127.9908828735,6.338028,2.0,8.041723e-08
218,138.3540267945,6.338028,1.3333334,8.041723e-08
219,138.352241516,5.633803,2.0,7.1481985e-08
220,138.35082626324999,5.633803,1.3333334,7.1481985e-08
221,138.1599617005,5.633803,0.6666667,7.1481985e-08
222,138.14687347425001,4.9295774,2.0,6.254673e-08
223,132.3179302215,4.9295774,1.3333334,6.254673e-08
224,126.31084060650001,4.9295774,0.6666667,6.254673e-08
225,138.317718506,4.2253523,2.0,5.361149e-08
226,138.31984329225,4.2253523,1.3333334,5.361149e-08
227,138.32156753525,4.2253523,0.6666667,5.361149e-08
228,137.41531372075,3.5211267,2.0,4.4676238e-08
229,136.5094604495,3.5211267,1.3333334,4.4676238e-08
230,126.04258346575,3.5211267,0.6666667,4.4676238e-08
231,115.575706482,2.8169014,2.0,3.5740992e-08
232,138.363166809,2.8169014,1.3333334,3.5740992e-08
233,138.3604393005,2.8169014,0.6666667,3.5740992e-08
234,138.35813522325,2.1126761,2.0,2.6805743e-08
235,138.04954147325,2.1126761,1.3333334,2.6805743e-08
236,138.27392578125,2.1126761,0.6666667,2.6805743e-08
237,134.207681656,1.4084507,2.0,1.7870496e-08
238,129.6080360415,1.4084507,1.3333334,1.7870496e-08
239,138.3323287965,1.4084507,0.6666667,1.7870496e-08
240,138.32327651975,0.70422536,2.0,8.935248e-09
241,138.30143737775,0.70422536,1.3333334,8.935248e-09
242,138.88425064075,0.70422536,0.6666667,8.935248e-09
243,138.4973220825,0.0,2.0,0.0
244,137.97475814825,0.0,1.3333334,0.0
245,138.4347229005,0.0,0.6666667,0.0
246,138.36877441450002,6.338028,2.0,0.10000008
247,138.38746643075,6.338028,1.3333334,0.10000008
248,138.22216033925,6.338028,0.6666667,0.10000008
249,138.74552917475,5.633803,2.0,0.100000076
250,137.71913909900002,5.633803,1.3333334,0.100000076
251,136.3582725525,5.633803,0.6666667,0.100000076
252,136.731163025,4.9295774,2.0,0.10000006
253,138.602714539,4.9295774,1.3333334,0.10000006
254,138.47206878675001,4.9295774,0.6666667,0.10000006
255,138.16917037975,4.2253523,2.0,0.10000005
256,137.87125015275,4.2253523,1.3333334,0.10000005
257,136.86548233025002,4.2253523,0.6666667,0.10000005
258,134.51547431950002,3.5211267,2.0,0.100000046
259,133.045566559,3.5211267,1.3333334,0.100000046
260,138.939155579,3.5211267,0.6666667,0.100000046
261,138.360145569,2.8169014,2.0,0.10000004
262,137.77790832525,2.8169014,1.3333334,0.10000004
263,137.480232239,2.8169014,0.6666667,0.10000004
264,136.55625915550002,2.1126761,2.0,0.10000003
265,134.43561363225,2.1126761,1.3333334,0.10000003
266,132.94449234,2.1126761,0.6666667,0.10000003
267,138.103179932,1.4084507,2.0,0.10000002
268,138.2567253115,1.4084507,1.3333334,0.10000002
269,138.49501419075,1.4084507,0.6666667,0.10000002
270,138.20886993425,0.70422536,2.0,0.10000001
271,138.10117721575,0.70422536,1.3333334,0.10000001
272,138.337600708,0.70422536,0.6666667,0.10000001
273,138.3108291625,-1.2688052e-09,2.0,0.1
274,138.533821106,-1.2688052e-09,1.3333334,0.1
275,138.391204834,-1.2688052e-09,0.6666667,0.1
276,138.32801437375,6.338028,2.0,0.20000008
277,138.36008453375,6.338028,1.3333334,0.20000008
278,138.3380241395,6.338028,0.6666667,0.20000008
279,138.336845398,5.633803,2.0,0.20000008
280,138.31037139900002,5.633803,1.3333334,0.20000008
281,138.540611267,5.633803,0.6666667,0.20000008
282,138.61331939675,4.9295774,2.0,0.20000006
283,138.61023330675,4.9295774,1.3333334,0.20000006
284,138.435092926,4.9295774,0.6666667,0.20000006
285,138.34870529175,4.2253523,2.0,0.20000006
286,138.34947204600002,4.2253523,1.3333334,0.20000006
287,138.3372802735,4.2253523,0.6666667,0.20000006
288,139.235671997,3.5211267,2.0,0.20000005
289,139.710811615,3.5211267,1.3333334,0.20000005
290,139.2928009035,3.5211267,0.6666667,0.20000005
291,138.09151077275,2.8169014,2.0,0.20000003
292,138.07203674325,2.8169014,1.3333334,0.20000003
293,138.3626594545,2.8169014,0.6666667,0.20000003
294,138.364616394,2.1126761,2.0,0.20000003
295,139.99968719449998,2.1126761,1.3333334,0.20000003
296,138.42576599125,2.1126761,0.6666667,0.20000003
297,137.764945984,1.4084507,2.0,0.20000002
298,138.220336914,1.4084507,1.3333334,0.20000002
299,138.05078125,1.4084507,0.6666667,0.20000002
300,138.35205459575002,0.70422536,2.0,0.20000002
301,138.36517333950002,0.70422536,1.3333334,0.20000002
302,141.63739013650002,0.70422536,0.6666667,0.20000002
303,138.76512146,-2.5376103e-09,2.0,0.2
304,137.299129486,-2.5376103e-09,1.3333334,0.2
305,138.520648956,-2.5376103e-09,0.6666667,0.2
306,138.32672119125,11.971831,2.0,1.5189921e-07
307,138.327720642,11.971831,1.3333334,1.5189921e-07
308,138.337890625,11.971831,0.6666667,1.5189921e-07
309,141.122192383,11.267606,2.0,1.4296397e-07
310,139.3722877505,11.267606,1.3333334,1.4296397e-07
311,137.637161255,11.267606,0.6666667,1.4296397e-07
312,138.002819061,10.56338,2.0,1.3402871e-07
313,138.34460067725,10.56338,1.3333334,1.3402871e-07
314,138.32278060925,10.56338,0.6666667,1.3402871e-07
315,138.310058594,9.859155,2.0,1.2509346e-07
316,138.20082092299998,9.859155,1.3333334,1.2509346e-07
317,138.08060073874998,9.859155,0.6666667,1.2509346e-07
318,137.977962494,9.154929,2.0,1.1615821e-07
319,138.16798400875,9.154929,1.3333334,1.1615821e-07
320,138.3409080505,9.154929,0.6666667,1.1615821e-07
321,138.325428009,8.450705,2.0,1.0722298e-07
322,138.30946350099998,8.450705,1.3333334,1.0722298e-07
323,138.39157104499998,8.450705,0.6666667,1.0722298e-07
324,138.39475631725,7.746479,2.0,9.828773e-08
325,138.338077545,7.746479,1.3333334,9.828773e-08
326,138.30494689925,7.746479,0.6666667,9.828773e-08
327,138.33000564575,7.0422535,2.0,8.9352476e-08
328,138.33264541625,7.0422535,1.3333334,8.9352476e-08
329,138.33695983899997,7.0422535,0.6666667,8.9352476e-08
330,138.284667969,6.338028,0.6666667,8.041723e-08
331,138.286621094,12.676056,0.6666667,0.100000165
332,138.34195709225,12.676056,0.0,0.100000165
333,138.36682128875,11.971831,2.0,0.10000015
334,138.33606338475,11.971831,1.3333334,0.10000015
335,138.34943389875,11.971831,0.6666667,0.10000015
336,138.36504364,11.267606,2.0,0.10000014
337,138.380455017,11.267606,1.3333334,0.10000014
338,138.38124847425001,11.267606,0.6666667,0.10000014
339,138.3380737305,10.56338,2.0,0.100000136
340,138.31808471649998,10.56338,1.3333334,0.100000136
341,138.3439559935,10.56338,0.6666667,0.100000136
342,138.3557624815,9.859155,2.0,0.10000013
343,138.3656768795,9.859155,1.3333334,0.10000013
344,138.3029022215,9.859155,0.6666667,0.10000013
345,138.30278778075,9.154929,2.0,0.10000012
346,138.3394851685,9.154929,1.3333334,0.10000012
347,138.306072235,9.154929,0.6666667,0.10000012
348,138.2918663025,8.450705,2.0,0.100000106
349,138.3429870605,8.450705,1.3333334,0.100000106
350,138.338088989,8.450705,0.6666667,0.100000106
351,138.367752075,7.746479,2.0,0.1000001
352,138.35593795775,7.746479,1.3333334,0.1000001
353,138.31637191800002,7.746479,0.6666667,0.1000001
354,138.29865646375,7.0422535,2.0,0.10000009
355,138.31981658925,7.0422535,1.3333334,0.10000009
356,138.32040786725,7.0422535,0.6666667,0.10000009
357,138.309875488,12.676056,0.6666667,0.20000017
358,138.3185424805,12.676056,0.0,0.20000017
359,138.3131256105,11.971831,2.0,0.20000015
360,138.3348999025,11.971831,1.3333334,0.20000015
361,138.400188446,11.971831,0.6666667,0.20000015
362,138.37769699075,11.267606,2.0,0.20000015
363,138.31317520125,11.267606,1.3333334,0.20000015
364,138.3092422485,11.267606,0.6666667,0.20000015
365,138.358520508,10.56338,2.0,0.20000014
366,138.42482757575,10.56338,1.3333334,0.20000014
367,138.40789794900002,10.56338,0.6666667,0.20000014
368,138.3528633115,9.859155,2.0,0.20000012
369,138.36281585675,9.859155,1.3333334,0.20000012
370,138.34069824225,9.859155,0.6666667,0.20000012
371,138.3368301395,9.154929,2.0,0.20000012
372,138.31826019300001,9.154929,1.3333334,0.20000012
373,138.37502288825,9.154929,0.6666667,0.20000012
374,138.4276885985,8.450705,2.0,0.2000001
375,138.37625503525,8.450705,1.3333334,0.2000001
376,138.32309341425,8.450705,0.6666667,0.2000001
377,138.34116363524998,7.746479,2.0,0.2000001
378,138.36505889900002,7.746479,1.3333334,0.2000001
379,138.36782074,7.746479,0.6666667,0.2000001
380,138.3766975405,7.0422535,2.0,0.20000009
381,138.3810424805,7.0422535,1.3333334,0.20000009
382,138.42723846425,7.0422535,0.6666667,0.20000009
383,138.45377731325,23.943663,-1.3333334,3.0379843e-07
384,132.253358841,23.943663,-2.0,3.0379843e-07
385,126.077129364,23.239437,-1.3333334,2.9486318e-07
386,138.33929443350002,23.239437,-2.0,2.9486318e-07
387,138.34643173224998,22.535212,-1.3333334,2.8592794e-07
388,138.34722900399998,22.535212,-2.0,2.8592794e-07
389,138.4909324645,21.830986,-1.3333334,2.769927e-07
390,138.63792419425,21.830986,-2.0,2.769927e-07
391,126.21242904675,21.12676,-1.3333334,2.6805742e-07
392,113.789985657,21.12676,-2.0,2.6805742e-07
393,138.3602752685,20.422535,-1.3333334,2.5912217e-07
394,138.348110199,20.422535,-2.0,2.5912217e-07
395,138.33531570449998,19.71831,-1.3333334,2.5018693e-07
396,138.39899063125,19.71831,-2.0,2.5018693e-07
397,138.40236663825,19.014084,-1.3333334,2.4125168e-07
398,132.2865314485,19.014084,-2.0,2.4125168e-07
399,126.2316246035,18.309858,-1.3333334,2.3231642e-07
400,138.335914612,18.309858,-2.0,2.3231642e-07
401,138.32581710825,17.605635,-1.3333334,2.233812e-07
402,138.31505584725,17.605635,-2.0,2.233812e-07
403,138.23583602925,16.90141,-1.3333334,2.1444595e-07
404,138.05983734149999,16.90141,-2.0,2.1444595e-07
405,139.13115310675,16.197184,-1.3333334,2.055107e-07
406,140.29991149900002,16.197184,-2.0,2.055107e-07
407,138.338142395,15.492958,-1.3333334,1.9657546e-07
408,138.3381118775,15.492958,-2.0,1.9657546e-07
409,138.3381996155,14.788733,-1.3333334,1.876402e-07
410,138.3602638245,14.788733,-2.0,1.876402e-07
411,138.35782241825,14.084507,-1.3333334,1.7870495e-07
412,138.38339996324999,14.084507,-2.0,1.7870495e-07
413,138.433364868,13.380281,-1.3333334,1.697697e-07
414,138.3370742795,13.380281,-2.0,1.697697e-07
415,138.33708953849998,12.676056,-1.3333334,1.6083446e-07
416,138.33703613275,12.676056,-2.0,1.6083446e-07
417,138.57923889149998,24.647888,-1.3333334,0.100000314
418,138.5512924195,24.647888,-2.0,0.100000314
419,137.50872802725002,23.943663,-1.3333334,0.10000031
420,136.7363815305,23.943663,-2.0,0.10000031
421,138.3377304075,23.239437,-1.3333334,0.1000003
422,138.33772277825,23.239437,-2.0,0.1000003
423,138.33776474,22.535212,-1.3333334,0.100000285
424,138.34241104125,22.535212,-2.0,0.100000285
425,138.046283722,21.830986,-1.3333334,0.10000028
426,137.75009155275,21.830986,-2.0,0.10000028
427,137.754623413,21.12676,-1.3333334,0.10000027
428,138.337348938,21.12676,-2.0,0.10000027
429,138.33735656725,20.422535,-1.3333334,0.10000026
430,138.3373298645,20.422535,-2.0,0.10000026
431,138.369873047,19.71831,-1.3333334,0.100000255
432,138.3629226685,19.71831,-2.0,0.100000255
433,137.77290725725,19.014084,-1.3333334,0.10000024
434,137.222419739,19.014084,-2.0,0.10000024
435,138.267730713,18.309858,-1.3333334,0.10000023
436,138.3033447265,18.309858,-2.0,0.10000023
437,138.3234939575,17.605635,-1.3333334,0.100000225
438,138.43541336075,17.605635,-2.0,0.100000225
439,138.3637161255,16.90141,-1.3333334,0.10000022
440,135.35887908925,16.90141,-2.0,0.10000022
441,132.55312347400002,16.197184,-1.3333334,0.10000021
442,138.226211548,16.197184,-2.0,0.10000021
443,138.338886261,15.492958,-1.3333334,0.100000195
444,138.33760452274998,15.492958,-2.0,0.100000195
445,138.0319252015,14.788733,-1.3333334,0.10000019
446,137.64953613275,14.788733,-2.0,0.10000019
447,135.944580078,14.084507,-1.3333334,0.10000018
448,134.430290222,14.084507,-2.0,0.10000018
449,138.208267212,13.380281,-1.3333334,0.10000017
450,138.37213897700002,13.380281,-2.0,0.10000017
451,138.42512130724998,12.676056,-1.3333334,0.100000165
452,138.44403457625,12.676056,-2.0,0.100000165
453,138.4958839415,24.647888,-1.3333334,0.20000032
454,140.72323989875,24.647888,-2.0,0.20000032
455,143.0285491945,23.943663,-1.3333334,0.2000003
456,138.3177108765,23.943663,-2.0,0.2000003
457,138.39728546150002,23.239437,-1.3333334,0.2000003
458,138.46652221675,23.239437,-2.0,0.2000003
459,138.94696426375,22.535212,-1.3333334,0.20000029
460,139.4408683775,22.535212,-2.0,0.20000029
461,140.5128593445,21.830986,-1.3333334,0.20000029
462,141.5817260745,21.830986,-2.0,0.20000029
463,138.41590881349998,21.12676,-1.3333334,0.20000027
464,138.382183075,21.12676,-2.0,0.20000027
465,138.35082244875,20.422535,-1.3333334,0.20000026
466,138.563632965,20.422535,-2.0,0.20000026
467,138.591430664,19.71831,-1.3333334,0.20000026
468,138.03896331800001,19.71831,-2.0,0.20000026
469,137.66914367700002,19.014084,-1.3333334,0.20000024
470,138.3477478025,19.014084,-2.0,0.20000024
471,138.33733367899998,18.309858,-1.3333334,0.20000024
472,138.327217102,18.309858,-2.0,0.20000024
473,138.0416755675,17.605635,-1.3333334,0.20000023
474,138.21662902825,17.605635,-2.0,0.20000023
475,138.21163558975002,16.90141,-1.3333334,0.20000021
476,137.7458496095,16.90141,-2.0,0.20000021
477,138.329711914,16.197184,-1.3333334,0.20000021
478,138.33787918075,16.197184,-2.0,0.20000021
479,138.34577941875,15.492958,-1.3333334,0.2000002
480,138.4468154905,15.492958,-2.0,0.2000002
481,139.23627853375,14.788733,-1.3333334,0.2000002
482,137.9550476075,14.788733,-2.0,0.2000002
483,135.98565673849998,14.084507,-1.3333334,0.20000018
484,138.34357452400002,14.084507,-2.0,0.20000018
485,138.33727645875,13.380281,-1.3333334,0.20000017
486,138.33117675775,13.380281,-2.0,0.20000017
487,138.1500930785,12.676056,-1.3333334,0.20000017
488,138.146961212,12.676056,-2.0,0.20000017
489,137.64082336425,23.943663,-0.6666667,3.0379843e-07
490,136.95653533950002,23.239437,0.0,2.9486318e-07
491,138.332962036,23.239437,-0.6666667,2.9486318e-07
492,138.3377723695,22.535212,0.0,2.8592794e-07
493,138.34240722675,22.535212,-0.6666667,2.8592794e-07
494,137.425868988,21.830986,0.0,2.769927e-07
495,136.5095062255,21.830986,-0.6666667,2.769927e-07
496,138.74604034425,21.12676,0.0,2.6805742e-07
497,140.982574463,21.12676,-0.6666667,2.6805742e-07
498,138.329421997,20.422535,0.0,2.5912217e-07
499,138.335044861,20.422535,-0.6666667,2.5912217e-07
500,138.340789795,19.71831,0.0,2.5018693e-07
501,137.6430358885,19.71831,-0.6666667,2.5018693e-07
502,136.5095062255,19.014084,0.0,2.4125168e-07
503,138.80747985850002,19.014084,-0.6666667,2.4125168e-07
504,141.541107178,18.309858,0.0,2.3231642e-07
505,127.8511047365,18.309858,-0.6666667,2.3231642e-07
506,133.13903427125,17.605635,0.0,2.233812e-07
507,135.77749443025,17.605635,-0.6666667,2.233812e-07
508,135.19236946075,16.90141,0.0,2.1444595e-07
509,134.92760467525,16.90141,-0.6666667,2.1444595e-07
510,135.138999939,16.197184,0.0,2.055107e-07
511,137.6795043945,16.197184,-0.6666667,2.055107e-07
512,120.785478592,15.492958,0.0,1.9657546e-07
513,130.762526512125,15.492958,-0.6666667,1.9657546e-07
514,138.092120170375,14.788733,-0.6666667,1.876402e-07
515,136.25431919087498,14.084507,0.0,1.7870495e-07
516,136.929050445625,14.084507,-0.6666667,1.7870495e-07
517,138.064378738375,13.380281,0.0,1.697697e-07
518,139.33462905875,13.380281,-0.6666667,1.697697e-07
519,120.785430908,12.676056,0.0,1.6083446e-07
520,131.918809890625,12.676056,-0.6666667,1.6083446e-07
521,140.506067276,24.647888,0.0,0.100000314
522,137.326726913625,24.647888,-0.6666667,0.100000314
523,138.595321655375,23.943663,0.0,0.10000031
524,140.44261741625,23.943663,-0.6666667,0.10000031
525,140.38809967025,23.239437,0.0,0.1000003
526,132.296674728,23.239437,-0.6666667,0.1000003
527,136.332388877625,22.535212,0.0,0.100000285
528,138.99520874025,22.535212,-0.6666667,0.100000285
529,137.921270370625,21.830986,0.0,0.10000028
530,138.417486190875,21.830986,-0.6666667,0.10000028
531,138.521961212125,21.12676,0.0,0.10000027
532,138.4291763305,21.12676,-0.6666667,0.10000027
533,138.673084259,20.422535,0.0,0.10000026
534,137.75799560537502,20.422535,-0.6666667,0.10000026
535,137.296142578,19.71831,0.0,0.100000255
536,138.12648391725,19.71831,-0.6666667,0.100000255
537,138.417346954375,19.014084,0.0,0.10000024
538,138.252410888625,19.014084,-0.6666667,0.10000024
539,138.17371749875,18.309858,0.0,0.10000023
540,139.0322914125,18.309858,-0.6666667,0.10000023
541,138.28620529175,17.605635,0.0,0.100000225
542,137.8099594115,17.605635,-0.6666667,0.100000225
543,137.76548385625,16.90141,0.0,0.10000022
544,138.170595169,16.90141,-0.6666667,0.10000022
545,138.8200263975,16.197184,0.0,0.10000021
546,138.7500305175,16.197184,-0.6666667,0.10000021
547,137.50190734875,15.492958,0.0,0.100000195
548,138.208494186375,15.492958,-0.6666667,0.100000195
549,138.38349723812502,14.788733,0.0,0.10000019
550,138.0409412385,14.788733,-0.6666667,0.10000019
551,138.351272582875,14.084507,0.0,0.10000018
552,138.45096969587502,14.084507,-0.6666667,0.10000018
553,138.42936325075001,13.380281,0.0,0.10000017
554,137.50190734875,13.380281,-0.6666667,0.10000017
555,138.144002914375,12.676056,-0.6666667,0.100000165
556,138.408487319875,24.647888,0.0,0.20000032
557,138.304531097375,24.647888,-0.6666667,0.20000032
558,138.56296539287501,23.943663,0.0,0.2000003
559,138.560426711875,23.943663,-0.6666667,0.2000003
560,138.573108673,23.239437,0.0,0.2000003
561,138.26959609975,23.239437,-0.6666667,0.2000003
562,138.3291511535,22.535212,0.0,0.20000029
563,138.255540847625,22.535212,-0.6666667,0.20000029
564,138.241605758375,21.830986,0.0,0.20000029
565,138.3867340085,21.830986,-0.6666667,0.20000029
566,138.4110355375,21.12676,0.0,0.20000027
567,138.40943908675,21.12676,-0.6666667,0.20000027
568,139.0222358705,20.422535,0.0,0.20000026
569,138.503023147625,20.422535,-0.6666667,0.20000026
570,138.05309486375,19.71831,0.0,0.20000026
571,138.169225692625,19.71831,-0.6666667,0.20000026
572,138.2987937925,19.014084,0.0,0.20000024
573,138.353246688625,19.014084,-0.6666667,0.20000024
574,138.32497787475,18.309858,0.0,0.20000024
575,138.62385177625,18.309858,-0.6666667,0.20000024
576,138.38501358025,17.605635,0.0,0.20000023
577,138.180498123,17.605635,-0.6666667,0.20000023
578,138.248664856,16.90141,0.0,0.20000021
579,138.3465270995,16.90141,-0.6666667,0.20000021
580,138.381958007625,16.197184,0.0,0.20000021
581,138.35337066649998,16.197184,-0.6666667,0.20000021
582,138.32728195175,15.492958,0.0,0.2000002
583,138.32728195175,15.492958,-0.6666667,0.2000002
584,138.3317718505,14.788733,0.0,0.2000002
585,138.34389114375,14.788733,-0.6666667,0.2000002
586,138.350814819125,14.084507,0.0,0.20000018
587,138.343603134,14.084507,-0.6666667,0.20000018
588,138.337097168,13.380281,0.0,0.20000017
589,138.3458099365,13.380281,-0.6666667,0.20000017
590,138.3458099365,12.676056,-0.6666667,0.20000017
591,138.34226036075,18.309858,2.0,2.3231642e-07
592,138.337863922125,18.309858,1.3333334,2.3231642e-07
593,138.33738899225,18.309858,0.6666667,2.3231642e-07
594,138.337741851875,17.605635,2.0,2.233812e-07
595,138.3377227785,17.605635,1.3333334,2.233812e-07
596,138.33122253425,17.605635,0.6666667,2.233812e-07
597,138.33122253425,16.90141,2.0,2.1444595e-07
598,138.33392524725,16.90141,1.3333334,2.1444595e-07
599,138.3371982575,16.90141,0.6666667,2.1444595e-07
600,138.33755493175,16.197184,2.0,2.055107e-07
601,138.337352752875,16.197184,1.3333334,2.055107e-07
602,138.337364197,16.197184,0.6666667,2.055107e-07
603,138.34241867075002,15.492958,2.0,1.9657546e-07
604,138.34241867075002,15.492958,1.3333334,1.9657546e-07
605,138.34033393875,15.492958,0.6666667,1.9657546e-07
606,138.337791443,14.788733,2.0,1.876402e-07
607,138.337448120125,14.788733,1.3333334,1.876402e-07
608,138.337556839,14.788733,0.6666667,1.876402e-07
609,138.337551117,14.788733,0.0,1.876402e-07
610,138.33385849025,14.084507,2.0,1.7870495e-07
611,138.33385849025,14.084507,1.3333334,1.7870495e-07
612,138.335384369125,14.084507,0.6666667,1.7870495e-07
613,138.33723831174999,13.380281,2.0,1.697697e-07
614,138.33751487725,13.380281,1.3333334,1.697697e-07
615,138.337469101,13.380281,0.6666667,1.697697e-07
616,138.337474823,12.676056,2.0,1.6083446e-07
617,138.34022140525,12.676056,1.3333334,1.6083446e-07
618,138.34022140525,12.676056,0.6666667,1.6083446e-07
619,138.33908462525,18.309858,2.0,0.10000023
620,138.337707519375,18.309858,1.3333334,0.10000023
621,138.337461471625,18.309858,0.6666667,0.10000023
622,138.33746147175,17.605635,2.0,0.100000225
623,138.33746719375,17.605635,1.3333334,0.100000225
624,138.3355407715,17.605635,0.6666667,0.100000225
625,138.3355407715,16.90141,2.0,0.10000022
626,138.33633995037502,16.90141,1.3333334,0.10000022
627,138.337299346875,16.90141,0.6666667,0.10000022
628,138.337514877625,16.197184,2.0,0.10000021
629,138.337564468625,16.197184,1.3333334,0.10000021
630,138.3375587465,16.197184,0.6666667,0.10000021
631,138.338874817,15.492958,2.0,0.100000195
632,138.33902549750002,15.492958,1.3333334,0.100000195
633,138.332315444875,15.492958,0.6666667,0.100000195
634,138.332199096625,14.788733,2.0,0.10000019
635,138.331106186125,14.788733,1.3333334,0.10000019
636,138.33031082175,14.788733,0.6666667,0.10000019
637,138.33735275275,14.084507,2.0,0.10000018
638,138.3543815615,14.084507,1.3333334,0.10000018
639,138.349681854375,14.084507,0.6666667,0.10000018
640,138.332445144625,13.380281,2.0,0.10000017
641,138.336555480875,13.380281,1.3333334,0.10000017
642,138.402370452875,13.380281,0.6666667,0.10000017
643,139.216915130625,12.676056,2.0,0.100000165
644,139.98229217525,12.676056,1.3333334,0.100000165
645,138.33811950675,18.309858,2.0,0.20000024
646,138.33716773987499,18.309858,1.3333334,0.20000024
647,138.33601760875,18.309858,0.6666667,0.20000024
648,138.45466613775,17.605635,2.0,0.20000023
649,138.63356208800002,17.605635,1.3333334,0.20000023
650,139.69048500062502,17.605635,0.6666667,0.20000023
651,140.68735885625,16.90141,2.0,0.20000021
652,138.32745361325,16.90141,1.3333334,0.20000021
653,138.33483886725,16.90141,0.6666667,0.20000021
654,138.342201233125,16.197184,2.0,0.20000021
655,138.295444488625,16.197184,1.3333334,0.20000021
656,138.284374237,16.197184,0.6666667,0.20000021
657,137.180340767,15.492958,2.0,0.2000002
658,136.04064369225,15.492958,1.3333334,0.2000002
659,138.34011840850002,15.492958,0.6666667,0.2000002
660,138.343585968125,14.788733,2.0,0.2000002
661,138.34074020375,14.788733,1.3333334,0.2000002
662,138.040023803625,14.788733,0.6666667,0.2000002
663,138.097341537375,14.084507,2.0,0.20000018
664,136.667912483125,14.084507,1.3333334,0.20000018
665,134.886762619,14.084507,0.6666667,0.20000018
666,138.33535003675001,13.380281,2.0,0.20000017
667,138.335330963125,13.380281,1.3333334,0.20000017
668,138.333410262875,13.380281,0.6666667,0.20000017
669,138.26714515675,12.676056,2.0,0.20000017
670,138.615280151375,12.676056,1.3333334,0.20000017
671,136.957271575875,23.943663,2.0,3.0379843e-07
672,134.88676452625,23.943663,1.3333334,3.0379843e-07
673,138.33917236325,23.943663,0.6666667,3.0379843e-07
674,138.3388786315,23.943663,0.0,3.0379843e-07
675,138.343290328875,23.239437,2.0,2.9486318e-07
676,138.525272369375,23.239437,1.3333334,2.9486318e-07
677,138.460020065375,23.239437,0.6666667,2.9486318e-07
678,137.24219703675,22.535212,2.0,2.8592794e-07
679,136.2669029235,22.535212,1.3333334,2.8592794e-07
680,138.33638381949999,22.535212,0.6666667,2.8592794e-07
681,138.33648109425002,21.830986,2.0,2.769927e-07
682,138.33648109425002,21.830986,1.3333334,2.769927e-07
683,138.239768981875,21.830986,0.6666667,2.769927e-07
684,137.801034927375,21.12676,2.0,2.6805742e-07
685,137.520856857375,21.12676,1.3333334,2.6805742e-07
686,137.58279800425,21.12676,0.6666667,2.6805742e-07
687,138.338230133,20.422535,2.0,2.5912217e-07
688,138.33815956125,20.422535,1.3333334,2.5912217e-07
689,138.33815956125,20.422535,0.6666667,2.5912217e-07
690,138.4153785705,19.71831,2.0,2.5018693e-07
691,138.428207397375,19.71831,1.3333334,2.5018693e-07
692,137.9733428955,19.71831,0.6666667,2.5018693e-07
693,137.58279800425,19.014084,2.0,2.4125168e-07
694,138.351234436,19.014084,1.3333334,2.4125168e-07
695,138.343975067125,19.014084,0.6666667,2.4125168e-07
696,138.337053298875,24.647888,1.3333334,0.100000314
697,138.728572845375,24.647888,0.6666667,0.100000314
698,138.94369506825,23.943663,2.0,0.10000031
699,136.426290512,23.943663,1.3333334,0.10000031
700,134.08494567875,23.943663,0.6666667,0.10000031
701,138.3337631225,23.239437,2.0,0.1000003
702,138.324136733875,23.239437,1.3333334,0.1000003
703,138.314386367625,23.239437,0.6666667,0.1000003
704,138.298706054625,22.535212,2.0,0.100000285
705,138.01093864450002,22.535212,1.3333334,0.100000285
706,129.301578521875,22.535212,0.6666667,0.100000285
707,120.864429474,21.830986,2.0,0.10000028
708,138.3551597595,21.830986,1.3333334,0.10000028
709,138.35012054450002,21.830986,0.6666667,0.10000028
710,138.3472919465,21.12676,2.0,0.10000027
711,137.887285232625,21.12676,1.3333334,0.10000027
712,137.99637031575,21.12676,0.6666667,0.10000027
713,129.716051101875,20.422535,2.0,0.10000026
714,120.864429474,20.422535,1.3333334,0.10000026
715,138.32587814325,20.422535,0.6666667,0.10000026
716,138.326696395875,19.71831,2.0,0.100000255
717,138.326696395875,19.71831,1.3333334,0.100000255
718,138.39871215825,19.71831,0.6666667,0.100000255
719,139.197923660375,19.014084,2.0,0.10000024
720,133.955704689125,19.014084,1.3333334,0.10000024
721,127.98710823075001,19.014084,0.6666667,0.10000024
722,138.35261154175,24.647888,1.3333334,0.20000032
723,138.351533889625,24.647888,0.6666667,0.20000032
724,138.351533889625,23.943663,2.0,0.2000003
725,138.303165435875,23.943663,1.3333334,0.2000003
726,138.37779617325,23.943663,0.6666667,0.2000003
727,129.722565651,23.239437,2.0,0.2000003
728,120.94325828550001,23.239437,1.3333334,0.2000003
729,138.31944274900002,23.239437,0.6666667,0.2000003
730,138.32070541375,22.535212,2.0,0.20000029
731,138.32070541375,22.535212,1.3333334,0.20000029
732,137.96807289137502,22.535212,0.6666667,0.20000029
733,137.401472091875,21.830986,2.0,0.20000029
734,129.064772606,21.830986,1.3333334,0.20000029
735,120.943304062,21.830986,0.6666667,0.20000029
736,138.36086273175,21.12676,2.0,0.20000027
737,138.359287261875,21.12676,1.3333334,0.20000027
738,138.302221298125,21.12676,0.6666667,0.20000027
739,138.64073181150002,20.422535,2.0,0.20000026
740,139.2258377075,20.422535,1.3333334,0.20000026
741,136.325129509,20.422535,0.6666667,0.20000026
742,133.23331642175,19.71831,2.0,0.20000026
743,138.325466156,19.71831,1.3333334,0.20000026
744,138.318521499625,19.71831,0.6666667,0.20000026
745,138.32200241075,19.014084,2.0,0.20000024
746,139.11841201775002,19.014084,1.3333334,0.20000024
747,139.14964485175,19.014084,0.6666667,0.20000024
748,138.414806366,35.915493,-1.3333334,4.5569763e-07
749,138.43471908575,35.915493,-2.0,4.5569763e-07
750,138.36836624175,35.21127,-1.3333334,4.467624e-07
751,138.29119682325,35.21127,-2.0,4.467624e-07
752,138.201910018875,34.507042,-1.3333334,4.3782714e-07
753,138.7784023285,34.507042,-2.0,4.3782714e-07
754,138.45871925362502,33.80282,-1.3333334,4.2889192e-07
755,137.814655304,33.80282,-2.0,4.2889192e-07
756,138.07888412475,33.09859,-1.3333334,4.1995665e-07
757,138.602714539,33.09859,-2.0,4.1995665e-07
758,138.318506241,32.394367,-1.3333334,4.110214e-07
759,138.140974044875,32.394367,-2.0,4.110214e-07
760,138.140228271625,31.690142,-1.3333334,4.0208616e-07
761,138.769708633375,31.690142,-2.0,4.0208616e-07
762,137.42007923124999,30.985916,-1.3333334,3.931509e-07
763,135.33354759225,30.985916,-2.0,3.931509e-07
764,138.93881225625,30.28169,-1.3333334,3.8421567e-07
765,138.299509048625,30.28169,-2.0,3.8421567e-07
766,138.04384231575,29.577465,-1.3333334,3.7528042e-07
767,138.088209152375,29.577465,-2.0,3.7528042e-07
768,138.255979538,28.87324,-1.3333334,3.6634515e-07
769,137.19522571562499,28.87324,-2.0,3.6634515e-07
770,135.62743186950001,28.169014,-1.3333334,3.574099e-07
771,138.7703857425,28.169014,-2.0,3.574099e-07
772,138.590383529875,27.464788,-1.3333334,3.4847466e-07
773,138.41713714612501,27.464788,-2.0,3.4847466e-07
774,138.2496681215,26.760563,-1.3333334,3.395394e-07
775,138.21990776075,26.760563,-2.0,3.395394e-07
776,138.337600708,26.056337,-1.3333334,3.3060417e-07
777,138.3108291625,26.056337,-2.0,3.3060417e-07
778,138.39984130875,25.352112,-1.3333334,3.2166892e-07
779,138.323257446375,25.352112,-2.0,3.2166892e-07
780,138.049135208125,24.647888,-1.3333334,3.1273368e-07
781,138.082206726125,24.647888,-2.0,3.1273368e-07
782,138.3380680085,36.619717,-1.3333334,0.10000046
783,138.343826293875,36.619717,-2.0,0.10000046
784,138.32433319075,35.915493,-1.3333334,0.100000456
785,137.51881790175,35.915493,-2.0,0.100000456
786,138.04487991325,35.21127,-1.3333334,0.10000045
787,138.555351257125,35.21127,-2.0,0.10000045
788,138.6058387755,34.507042,-1.3333334,0.10000044
789,138.516778945875,34.507042,-2.0,0.10000044
790,138.356433868375,33.80282,-1.3333334,0.100000426
791,138.3512268065,33.80282,-2.0,0.100000426
792,138.73965072625,33.09859,-1.3333334,0.10000042
793,138.88797569275,33.09859,-2.0,0.10000042
794,138.7515945435,32.394367,-1.3333334,0.10000041
795,138.43735122675,32.394367,-2.0,0.10000041
796,138.384105682375,31.690142,-1.3333334,0.100000404
797,138.3625068665,31.690142,-2.0,0.100000404
798,138.364616394,30.985916,-1.3333334,0.1000004
799,139.35254669149998,30.985916,-2.0,0.1000004
800,138.42652320862499,30.28169,-1.3333334,0.10000039
801,138.262298584125,30.28169,-2.0,0.10000039
802,138.537542343125,29.577465,-1.3333334,0.100000374
803,138.1949157715,29.577465,-2.0,0.100000374
804,138.344900131125,28.87324,-1.3333334,0.10000037
805,138.350955963,28.87324,-2.0,0.10000037
806,140.366832733,28.169014,-1.3333334,0.10000036
807,138.369590759375,28.169014,-2.0,0.10000036
808,137.862449646,27.464788,-0.6666667,0.10000035
809,138.844024658,27.464788,-1.3333334,0.10000035
810,138.326524734375,27.464788,-2.0,0.10000035
811,138.320613861,26.760563,-0.6666667,0.100000344
812,138.323677063,26.760563,-1.3333334,0.100000344
813,140.21995925925,26.760563,-2.0,0.100000344
814,137.147275924875,26.056337,-1.3333334,0.10000033
815,136.408514022875,26.056337,-2.0,0.10000033
816,139.3547229765,25.352112,-1.3333334,0.10000032
817,139.151161193625,25.352112,-2.0,0.10000032
818,138.32268524175,36.619717,-1.3333334,0.20000046
819,138.310058594,36.619717,-2.0,0.20000046
820,138.20081710825,35.915493,-1.3333334,0.20000046
821,136.934560775875,35.915493,-2.0,0.20000046
822,137.20910835275,35.21127,-1.3333334,0.20000045
823,139.351995468125,35.21127,-2.0,0.20000045
824,139.15053749075,34.507042,-1.3333334,0.20000044
825,138.33541107175,34.507042,-2.0,0.20000044
826,138.32382583625,33.80282,-1.3333334,0.20000044
827,138.39157104499998,33.80282,-2.0,0.20000044
828,138.40199470525,33.09859,-1.3333334,0.20000042
829,138.347906112625,33.09859,-2.0,0.20000042
830,138.30669975275,32.394367,-1.3333334,0.20000042
831,138.331995010375,32.394367,-2.0,0.20000042
832,138.342651367125,31.690142,-1.3333334,0.2000004
833,138.35131835925,31.690142,-2.0,0.2000004
834,138.284667969,30.985916,-1.3333334,0.20000039
835,138.284030914375,30.985916,-2.0,0.20000039
836,138.3360443115,30.28169,-1.3333334,0.20000039
837,138.362724304125,30.28169,-2.0,0.20000039
838,138.335275649875,29.577465,-1.3333334,0.20000038
839,138.349420547375,29.577465,-2.0,0.20000038
840,138.36504364,28.87324,-1.3333334,0.20000038
841,138.380455017,28.87324,-2.0,0.20000038
842,138.38457298275,28.169014,-1.3333334,0.20000036
843,138.343542099,28.169014,-2.0,0.20000036
844,138.32039642325,27.464788,-0.6666667,0.20000035
845,138.342237472375,27.464788,-1.3333334,0.20000035
846,138.34666252124998,27.464788,-2.0,0.20000035
847,138.35124969474998,26.760563,-0.6666667,0.20000035
848,138.3029022215,26.760563,-1.3333334,0.20000035
849,138.300645828125,26.760563,-2.0,0.20000035
850,138.336780548,26.056337,-1.3333334,0.20000033
851,138.333518981875,26.056337,-2.0,0.20000033
852,138.317897796625,25.352112,-1.3333334,0.20000033
853,138.33379745475,25.352112,-2.0,0.20000033
854,138.32366561875,36.619717,0.0,4.6463285e-07
855,138.365081787,36.619717,-0.6666667,4.6463285e-07
856,138.41987419125002,35.915493,0.0,4.5569763e-07
857,138.387996673625,35.915493,-0.6666667,4.5569763e-07
858,138.31157684325,35.21127,0.0,4.467624e-07
859,138.325170516875,35.21127,-0.6666667,4.467624e-07
860,138.3191947935,34.507042,0.0,4.3782714e-07
861,138.309875488,34.507042,-0.6666667,4.3782714e-07
862,138.238723755,33.80282,0.0,4.2889192e-07
863,138.29069137587499,33.80282,-0.6666667,4.2889192e-07
864,138.3512477875,33.09859,0.0,4.1995665e-07
865,138.367910385,33.09859,-0.6666667,4.1995665e-07
866,138.345689773375,32.394367,0.0,4.110214e-07
867,138.31953239425002,32.394367,-0.6666667,4.110214e-07
868,138.32366943350002,31.690142,0.0,4.0208616e-07
869,138.274185181,31.690142,-0.6666667,4.0208616e-07
870,138.34290504475,30.985916,0.0,3.931509e-07
871,138.348009109375,30.985916,-0.6666667,3.931509e-07
872,138.3225212095,30.28169,0.0,3.8421567e-07
873,138.353204727,30.28169,-0.6666667,3.8421567e-07
874,138.348510742125,29.577465,0.0,3.7528042e-07
875,138.351261139,29.577465,-0.6666667,3.7528042e-07
876,138.27627944975,28.87324,0.0,3.6634515e-07
877,138.33714675925,28.87324,-0.6666667,3.6634515e-07
878,138.378561019875,28.169014,0.0,3.574099e-07
879,138.343130111625,28.169014,-0.6666667,3.574099e-07
880,138.338159561125,27.464788,0.0,3.4847466e-07
881,138.3571128845,27.464788,-0.6666667,3.4847466e-07
882,138.36505889900002,26.760563,0.0,3.395394e-07
883,138.33285141025,26.760563,-0.6666667,3.395394e-07
884,138.34241485625,26.056337,0.0,3.3060417e-07
885,138.351835250875,26.056337,-0.6666667,3.3060417e-07
886,138.40629005425,25.352112,0.0,3.2166892e-07
887,138.46081733712498,25.352112,-0.6666667,3.2166892e-07
888,135.37954425825,24.647888,0.0,3.1273368e-07
889,132.29834175125,24.647888,-0.6666667,3.1273368e-07
890,138.339099884,36.619717,0.0,0.10000046
891,138.3463344575,36.619717,-0.6666667,0.10000046
892,138.3437252045,35.915493,0.0,0.100000456
893,138.444169998,35.915493,-0.6666667,0.100000456
894,138.49990463249998,35.21127,0.0,0.10000045
895,129.656605720625,35.21127,-0.6666667,0.10000045
896,120.86786079425,34.507042,0.0,0.10000044
897,138.360256195,34.507042,-0.6666667,0.10000044
898,138.348012924125,33.80282,0.0,0.100000426
899,138.336442947375,33.80282,-0.6666667,0.100000426
900,138.324863433875,33.09859,0.0,0.10000042
901,138.23226356512498,33.09859,-0.6666667,0.10000042
902,129.938416481125,32.394367,0.0,0.10000041
903,121.72491645825001,32.394367,-0.6666667,0.10000041
904,138.336242676,31.690142,0.0,0.100000404
905,138.325815200875,31.690142,-0.6666667,0.100000404
906,138.32543563837498,30.985916,0.0,0.1000004
907,138.251775741625,30.985916,-0.6666667,0.1000004
908,138.18528747575,30.28169,0.0,0.10000039
909,136.145081520125,30.28169,-0.6666667,0.10000039
910,134.087656021,29.577465,0.0,0.100000374
911,138.3381118775,29.577465,-0.6666667,0.100000374
912,138.3381118775,28.87324,0.0,0.10000037
913,138.337705612125,28.87324,-0.6666667,0.10000037
914,138.403295516875,28.169014,0.0,0.10000036
915,138.523382186875,28.169014,-0.6666667,0.10000036
916,138.081172943,27.464788,0.0,0.10000035
917,137.58487319925,26.760563,0.0,0.100000344
918,138.33708953849998,26.056337,0.0,0.10000033
919,138.33708953849998,26.056337,-0.6666667,0.10000033
920,138.337366104,25.352112,0.0,0.10000032
921,138.428289413375,25.352112,-0.6666667,0.10000032
922,138.4030056,36.619717,0.0,0.20000046
923,137.93597412100002,36.619717,-0.6666667,0.20000046
924,137.58487319925,35.915493,0.0,0.20000046
925,138.33772277825,35.915493,-0.6666667,0.20000046
926,138.33772277825,35.21127,0.0,0.20000045
927,138.337556838875,35.21127,-0.6666667,0.20000045
928,138.19183731075,34.507042,0.0,0.20000044
929,138.08345222475,34.507042,-0.6666667,0.20000044
930,137.194543838375,33.80282,0.0,0.20000044
931,136.26846694925,33.80282,-0.6666667,0.20000044
932,138.33735656725,33.09859,-0.6666667,0.20000042
933,138.33735656725,32.394367,0.0,0.20000042
934,138.3374557495,32.394367,-0.6666667,0.20000042
935,138.36641693125,31.690142,0.0,0.2000004
936,138.54837799075,31.690142,-0.6666667,0.2000004
937,136.794624328625,30.985916,0.0,0.20000039
938,134.8877716065,30.985916,-0.6666667,0.20000039
939,138.259147644,30.28169,0.0,0.20000039
940,138.269052505375,30.28169,-0.6666667,0.20000039
941,138.27222442625,29.577465,0.0,0.20000038
942,138.54078674325,29.577465,-0.6666667,0.20000038
943,138.516792297375,28.87324,0.0,0.20000038
944,136.55263710025,28.87324,-0.6666667,0.20000038
945,134.8877716065,28.169014,0.0,0.20000036
946,138.21547698975002,28.169014,-0.6666667,0.20000036
947,138.246629714875,27.464788,0.0,0.20000035
948,138.220804214375,26.760563,0.0,0.20000035
949,138.131204605,26.056337,0.0,0.20000033
950,137.778726577625,26.056337,-0.6666667,0.20000033
951,136.75019836425,25.352112,0.0,0.20000033
952,136.0415267945,25.352112,-0.6666667,0.20000033
953,138.2137145995,30.28169,2.0,3.8421567e-07
954,138.31302452075,30.28169,1.3333334,3.8421567e-07
955,138.361957549875,30.28169,0.6666667,3.8421567e-07
956,138.304138183375,29.577465,2.0,3.7528042e-07
957,138.3318653105,29.577465,1.3333334,3.7528042e-07
958,140.33608627325,29.577465,0.6666667,3.7528042e-07
959,142.3051376345,28.87324,2.0,3.6634515e-07
960,138.31943893425,28.87324,1.3333334,3.6634515e-07
961,138.39339447025,28.87324,0.6666667,3.6634515e-07
962,138.464508056625,28.169014,2.0,3.574099e-07
963,138.81269645675,28.169014,1.3333334,3.574099e-07
964,138.967273712,28.169014,0.6666667,3.574099e-07
965,140.53797912599998,27.464788,2.0,3.4847466e-07
966,142.3051376345,27.464788,1.3333334,3.4847466e-07
967,138.3794784545,27.464788,0.6666667,3.4847466e-07
968,138.364467620875,26.760563,2.0,3.395394e-07
969,138.35152816775,26.760563,1.3333334,3.395394e-07
970,138.43455886825,26.760563,0.6666667,3.395394e-07
971,138.127126693625,26.056337,2.0,3.3060417e-07
972,137.62559700025,26.056337,1.3333334,3.3060417e-07
973,137.5124588015,26.056337,0.6666667,3.3060417e-07
974,138.33628463725,25.352112,2.0,3.2166892e-07
975,138.331750869625,25.352112,1.3333334,3.2166892e-07
976,138.325181961,25.352112,0.6666667,3.2166892e-07
977,137.870384216125,24.647888,2.0,3.1273368e-07
978,137.9926776885,24.647888,1.3333334,3.1273368e-07
979,137.716743469375,24.647888,0.6666667,3.1273368e-07
980,136.865753174,30.28169,2.0,0.10000039
981,138.33872985825,30.28169,1.3333334,0.10000039
982,138.3422546385,30.28169,0.6666667,0.10000039
983,138.34577941875,29.577465,2.0,0.100000374
984,138.408683776625,29.577465,1.3333334,0.100000374
985,139.1980133055,29.577465,0.6666667,0.100000374
986,138.39509582525,28.87324,2.0,0.10000037
987,136.865753174,28.87324,1.3333334,0.10000037
988,138.336643219,28.87324,0.6666667,0.10000037
989,138.333909988375,28.169014,2.0,0.10000036
990,138.33117675775,28.169014,1.3333334,0.10000036
991,138.29249191275,28.169014,0.6666667,0.10000036
992,138.75545883175,27.464788,2.0,0.10000035
993,138.523166656625,27.464788,1.3333334,0.10000035
994,137.7892227175,27.464788,0.6666667,0.10000035
995,138.33826828,26.760563,2.0,0.100000344
996,138.340337753375,26.760563,1.3333334,0.100000344
997,138.34240722675,26.760563,0.6666667,0.100000344
998,137.60203933725,26.056337,2.0,0.10000033
999,137.6405181885,26.056337,1.3333334,0.10000033
1000,139.677265167375,26.056337,0.6666667,0.10000033
1001,140.93516540550002,25.352112,2.0,0.10000032
1002,138.332962036,25.352112,1.3333334,0.10000032
1003,138.3368759155,25.352112,0.6666667,0.10000032
1004,138.340789795,24.647888,2.0,0.100000314
1005,137.710144043,30.28169,2.0,0.20000039
1006,137.66422271725,30.28169,1.3333334,0.20000039
1007,139.89502716075,30.28169,0.6666667,0.20000039
1008,141.541107178,29.577465,2.0,0.20000038
1009,117.139038086,29.577465,1.3333334,0.20000038
1010,129.5326919555,29.577465,0.6666667,0.20000038
1011,134.8126029965,28.87324,2.0,0.20000038
1012,132.5984535215,28.87324,1.3333334,0.20000038
1013,132.59848785399998,28.87324,0.6666667,0.20000038
1014,133.021255493,28.169014,2.0,0.20000036
1015,138.343582153,28.169014,1.3333334,0.20000036
1016,115.4294395445,28.169014,0.6666667,0.20000036
1017,129.41084480275,27.464788,2.0,0.20000035
1018,137.8769512175,27.464788,1.3333334,0.20000035
1019,135.6145915985,27.464788,0.6666667,0.20000035
1020,136.74565124525,26.760563,2.0,0.20000035
1021,137.005504608,26.760563,1.3333334,0.20000035
1022,139.3872375485,26.760563,0.6666667,0.20000035
1023,126.1414451595,26.056337,2.0,0.20000033
1024,134.59681892375,26.056337,1.3333334,0.20000033
1025,139.80224990850002,26.056337,0.6666667,0.20000033
1026,137.35544967675,25.352112,2.0,0.20000033
1027,139.4330215455,25.352112,1.3333334,0.20000033
1028,140.428020477,25.352112,0.6666667,0.20000033
1029,140.1485900875,24.647888,2.0,0.20000032
1030,136.745307922,35.915493,2.0,4.5569763e-07
1031,137.940319061,35.915493,1.3333334,4.5569763e-07
1032,137.892879486,35.915493,0.6666667,4.5569763e-07
1033,137.38093948375,35.21127,2.0,4.467624e-07
1034,138.33119583125,35.21127,1.3333334,4.467624e-07
1035,138.474403381,35.21127,0.6666667,4.467624e-07
1036,138.397865295,34.507042,2.0,4.3782714e-07
1037,137.1044540405,34.507042,1.3333334,4.3782714e-07
1038,137.43287658675,34.507042,0.6666667,4.3782714e-07
1039,138.087005615,33.80282,2.0,4.2889192e-07
1040,138.5509376525,33.80282,1.3333334,4.2889192e-07
1041,138.4709091185,33.80282,0.6666667,4.2889192e-07
1042,138.176116943,33.09859,2.0,4.1995665e-07
1043,138.09957885699998,33.09859,1.3333334,4.1995665e-07
1044,138.4188232425,33.09859,0.6666667,4.1995665e-07
1045,138.62673568725,32.394367,2.0,4.110214e-07
1046,138.77140808075,32.394367,1.3333334,4.110214e-07
1047,138.11793899525,32.394367,0.6666667,4.110214e-07
1048,138.29979324325,31.690142,2.0,4.0208616e-07
1049,139.04508972125,31.690142,1.3333334,4.0208616e-07
1050,139.018302917,31.690142,0.6666667,4.0208616e-07
1051,137.5496826175,30.985916,2.0,3.931509e-07
1052,138.25555419925,30.985916,1.3333334,3.931509e-07
1053,138.41262054425,30.985916,0.6666667,3.931509e-07
1054,138.0389289855,36.619717,2.0,0.10000046
1055,138.47759628275,36.619717,1.3333334,0.10000046
1056,138.73029327375002,36.619717,0.6666667,0.10000046
1057,138.71943664550002,35.915493,2.0,0.100000456
1058,137.45413208000002,35.915493,1.3333334,0.100000456
1059,138.13351058950002,35.915493,0.6666667,0.100000456
1060,138.417816162,35.21127,2.0,0.10000045
1061,138.28778457625,35.21127,1.3333334,0.10000045
1062,138.5528259275,35.21127,0.6666667,0.10000045
1063,138.57818984975,34.507042,2.0,0.10000044
1064,138.603553772,34.507042,1.3333334,0.10000044
1065,138.17547607400002,34.507042,0.6666667,0.10000044
1066,138.3057136535,33.80282,2.0,0.100000426
1067,138.2853240965,33.80282,1.3333334,0.100000426
1068,138.24664688075,33.80282,0.6666667,0.100000426
1069,138.41474914525,33.09859,2.0,0.10000042
1070,138.4749031065,33.09859,1.3333334,0.10000042
1071,138.47890472400002,33.09859,0.6666667,0.10000042
1072,138.97589111349998,32.394367,2.0,0.10000041
1073,138.4900779725,32.394367,1.3333334,0.10000041
1074,138.05715942375,32.394367,0.6666667,0.10000041
1075,138.16666030875,31.690142,2.0,0.100000404
1076,138.33383941625,31.690142,1.3333334,0.100000404
1077,138.3937530515,31.690142,0.6666667,0.100000404
1078,138.343093872,30.985916,2.0,0.1000004
1079,138.6248321535,30.985916,1.3333334,0.1000004
1080,138.38501358025,30.985916,0.6666667,0.1000004
1081,138.189174652,36.619717,2.0,0.20000046
1082,138.25112152125,36.619717,1.3333334,0.20000046
1083,138.3363723755,36.619717,0.6666667,0.20000046
1084,138.35842895475,35.915493,2.0,0.20000046
1085,138.31320190399998,35.915493,1.3333334,0.20000046
1086,138.3275985715,35.915493,0.6666667,0.20000046
1087,138.32728195175,35.21127,2.0,0.20000045
1088,138.33733367925,35.21127,1.3333334,0.20000045
1089,138.34299469,35.21127,0.6666667,0.20000045
1090,138.33769989,34.507042,2.0,0.20000044
1091,138.3371124265,34.507042,1.3333334,0.20000044
1092,138.3371124265,34.507042,0.6666667,0.20000044
1093,138.3455657955,33.80282,2.0,0.20000044
1094,138.3458099365,33.80282,1.3333334,0.20000044
1095,138.3378868105,33.80282,0.6666667,0.20000044
1096,138.33333587625,33.09859,2.0,0.20000042
1097,138.33733367899998,33.09859,1.3333334,0.20000042
1098,138.33771514900002,33.09859,0.6666667,0.20000042
1099,138.33771514900002,33.09859,0.0,0.20000042
1100,138.33143615699998,32.394367,2.0,0.20000042
1101,138.33122253425,32.394367,1.3333334,0.20000042
1102,138.33727264425,32.394367,0.6666667,0.20000042
1103,138.34067153925,31.690142,2.0,0.2000004
1104,138.337589264,31.690142,1.3333334,0.2000004
1105,138.3373718265,31.690142,0.6666667,0.2000004
1106,138.3373718265,30.985916,2.0,0.20000039
1107,138.3422546385,30.985916,1.3333334,0.20000039
1108,138.34241867075002,30.985916,0.6666667,0.20000039
1109,138.33777236974998,42.957745,0.0,5.450501e-07
1110,138.33513641375,42.957745,-0.6666667,5.450501e-07
1111,138.33742904675,42.957745,-1.3333334,5.450501e-07
1112,138.3375473025,42.957745,-2.0,5.450501e-07
1113,138.3375473025,42.25352,0.0,5.3611484e-07
1114,138.3339920045,42.25352,-0.6666667,5.3611484e-07
1115,138.33385849025,42.25352,-1.3333334,5.3611484e-07
1116,138.33729171775,42.25352,-2.0,5.3611484e-07
1117,138.3392181395,41.549297,0.0,5.271796e-07
1118,138.337524414,41.549297,-0.6666667,5.271796e-07
1119,138.33747100850002,41.549297,-1.3333334,5.271796e-07
1120,138.33747100850002,41.549297,-2.0,5.271796e-07
1121,138.340126038,40.84507,0.0,5.1824435e-07
1122,138.34022140525,40.84507,-0.6666667,5.1824435e-07
1123,138.33767700175,40.84507,-1.3333334,5.1824435e-07
1124,138.33624649025,40.84507,-2.0,5.1824435e-07
1125,138.33745956425,40.140846,0.0,5.0930913e-07
1126,138.337463379,40.140846,-0.6666667,5.0930913e-07
1127,138.337463379,40.140846,-1.3333334,5.0930913e-07
1128,138.3356170655,40.140846,-2.0,5.0930913e-07
1129,138.3355407715,39.43662,0.0,5.0037386e-07
1130,138.3373527525,39.43662,-0.6666667,5.0037386e-07
1131,138.33834457400002,39.43662,-1.3333334,5.0037386e-07
1132,138.33749771150002,39.43662,-2.0,5.0037386e-07
1133,138.3375473025,38.732395,0.0,4.9143864e-07
1134,138.3375473025,38.732395,-0.6666667,4.9143864e-07
1135,138.3388290405,38.732395,-1.3333334,4.9143864e-07
1136,138.3388671875,38.732395,-2.0,4.9143864e-07
1137,138.33769989,38.028168,0.0,4.8250337e-07
1138,138.33840942375,38.028168,-0.6666667,4.8250337e-07
1139,138.33951568625,38.028168,-1.3333334,4.8250337e-07
1140,138.338031769,38.028168,-2.0,4.8250337e-07
1141,138.33735656750002,37.323944,0.0,4.7356812e-07
1142,138.34825134300002,37.323944,-0.6666667,4.7356812e-07
1143,138.35050201425,37.323944,-1.3333334,4.7356812e-07
1144,138.34045028675,37.323944,-2.0,4.7356812e-07
1145,138.22116470325,36.619717,-1.3333334,4.6463285e-07
1146,138.3406562805,36.619717,-2.0,4.6463285e-07
1147,140.08304977400002,42.957745,0.0,0.100000545
1148,141.5989685055,42.957745,-0.6666667,0.100000545
1149,138.3329696655,42.957745,-1.3333334,0.100000545
1150,138.34022521975,42.957745,-2.0,0.100000545
1151,138.34571456925,42.25352,0.0,0.10000054
1152,138.33869171150002,42.25352,-0.6666667,0.10000054
1153,138.5774383545,42.25352,-1.3333334,0.10000054
1154,140.20122528075,42.25352,-2.0,0.10000054
1155,141.581008911,41.549297,0.0,0.10000053
1156,138.328125,41.549297,-0.6666667,0.10000053
1157,138.33694839475,41.549297,-1.3333334,0.10000053
1158,138.34394454975,41.549297,-2.0,0.10000053
1159,138.31159210225002,40.84507,0.0,0.100000516
1160,138.314037323,40.84507,-0.6666667,0.100000516
1161,137.999446869,40.84507,-1.3333334,0.100000516
1162,137.65188598650002,40.84507,-2.0,0.100000516
1163,138.34011840850002,40.140846,0.0,0.10000051
1164,138.34342575075,40.140846,-0.6666667,0.10000051
1165,138.3402137755,40.140846,-1.3333334,0.10000051
1166,138.03965759275,40.140846,-2.0,0.10000051
1167,138.07403182975,39.43662,0.0,0.1000005
1168,137.81193161,39.43662,-0.6666667,0.1000005
1169,137.221420288,39.43662,-1.3333334,0.1000005
1170,138.3355941775,39.43662,-2.0,0.1000005
1171,138.33514022825,38.732395,0.0,0.10000049
1172,138.3371238705,38.732395,-0.6666667,0.10000049
1173,138.17850875825,38.732395,-1.3333334,0.10000049
1174,138.50185394275002,38.732395,-2.0,0.10000049
1175,135.76918029775,38.028168,0.0,0.100000486
1176,132.55210876450002,38.028168,-0.6666667,0.100000486
1177,138.339431763,38.028168,-1.3333334,0.100000486
1178,138.338886261,38.028168,-2.0,0.100000486
1179,138.34752273525,37.323944,0.0,0.10000047
1180,138.3462486265,37.323944,-0.6666667,0.10000047
1181,138.303073883,37.323944,-1.3333334,0.10000047
1182,136.52556228625002,37.323944,-2.0,0.10000047
1183,134.780769348,42.957745,0.0,0.20000055
1184,138.336494446,42.957745,-0.6666667,0.20000055
1185,138.3365364075,42.957745,-1.3333334,0.20000055
1186,138.336425781,42.957745,-2.0,0.20000055
1187,138.13282012925,42.25352,0.0,0.20000054
1188,137.694141388,42.25352,-0.6666667,0.20000054
1189,137.9451179505,42.25352,-1.3333334,0.20000054
1190,138.4313201905,42.25352,-2.0,0.20000054
1191,138.33814239499998,41.549297,0.0,0.20000052
1192,138.33811569225,41.549297,-0.6666667,0.20000052
1193,138.33820343025002,41.549297,-1.3333334,0.20000052
1194,138.37478637700002,41.549297,-2.0,0.20000052
1195,138.363685608,40.84507,0.0,0.20000052
1196,137.5251960755,40.84507,-0.6666667,0.20000052
1197,136.73427581800001,40.84507,-1.3333334,0.20000052
1198,138.336578369,40.84507,-2.0,0.20000052
1199,138.3368377685,40.140846,0.0,0.20000051
1200,138.337020874,40.140846,-0.6666667,0.20000051
1201,138.80915069600002,40.140846,-1.3333334,0.20000051
1202,138.6894874575,40.140846,-2.0,0.20000051
1203,132.98511505124998,39.43662,0.0,0.20000051
1204,127.87261199950001,39.43662,-0.6666667,0.20000051
1205,138.308868408,39.43662,-1.3333334,0.20000051
1206,138.3120994565,39.43662,-2.0,0.20000051
1207,138.31426239,38.732395,0.0,0.2000005
1208,138.5541534425,38.732395,-0.6666667,0.2000005
1209,137.93191146875,38.732395,-1.3333334,0.2000005
1210,126.28466415425,38.732395,-2.0,0.2000005
1211,115.500617981,38.028168,0.0,0.20000048
1212,138.341720581,38.028168,-0.6666667,0.20000048
1213,138.34362030025,38.028168,-1.3333334,0.20000048
1214,138.34880065925,38.028168,-2.0,0.20000048
1215,137.98485183725,37.323944,0.0,0.20000048
1216,138.03780365,37.323944,-0.6666667,0.20000048
1217,132.34311294575002,37.323944,-1.3333334,0.20000048
1218,126.228240967,37.323944,-2.0,0.20000048
1219,138.326927185,42.957745,2.0,5.450501e-07
1220,138.32722091675,42.957745,1.3333334,5.450501e-07
1221,138.326171875,42.957745,0.6666667,5.450501e-07
1222,138.35992050175,42.25352,2.0,5.3611484e-07
1223,139.15965652475,42.25352,1.3333334,5.3611484e-07
1224,133.95381736775,42.25352,0.6666667,5.3611484e-07
1225,127.98333358800001,41.549297,2.0,5.271796e-07
1226,138.351196289,41.549297,1.3333334,5.271796e-07
1227,138.35082626324999,41.549297,0.6666667,5.271796e-07
1228,138.352241516,40.84507,2.0,5.1824435e-07
1229,138.44636917125,40.84507,1.3333334,5.1824435e-07
1230,138.60871887225,40.84507,0.6666667,5.1824435e-07
1231,127.12720108049999,40.140846,2.0,5.0930913e-07
1232,115.5756759645,40.140846,1.3333334,5.0930913e-07
1233,138.321166992,40.140846,0.6666667,5.0930913e-07
1234,138.32156753525,39.43662,2.0,5.0037386e-07
1235,138.31984329225,39.43662,1.3333334,5.0037386e-07
1236,138.520832062,39.43662,0.6666667,5.0037386e-07
1237,138.29348373425,38.732395,2.0,4.9143864e-07
1238,132.08696174624998,38.732395,1.3333334,4.9143864e-07
1239,126.310901642,38.732395,0.6666667,4.9143864e-07
1240,138.3585586545,38.028168,2.0,4.8250337e-07
1241,138.35813522325,38.028168,1.3333334,4.8250337e-07
1242,138.246307373,38.028168,0.6666667,4.8250337e-07
1243,139.23192214975,37.323944,2.0,4.7356812e-07
1244,140.17774963375,37.323944,1.3333334,4.7356812e-07
1245,138.442577362,37.323944,0.6666667,4.7356812e-07
1246,136.858596802,36.619717,2.0,4.6463285e-07
1247,138.3186035155,36.619717,1.3333334,4.6463285e-07
1248,138.3137664795,36.619717,0.6666667,4.6463285e-07
1249,138.34256744375,42.957745,2.0,0.100000545
1250,139.35257339475,42.957745,1.3333334,0.100000545
1251,139.80196762100002,42.957745,0.6666667,0.100000545
1252,138.85485458375,42.25352,2.0,0.10000054
1253,138.43471527100002,42.25352,1.3333334,0.10000054
1254,138.367958069,42.25352,0.6666667,0.10000054
1255,138.19492721575,41.549297,2.0,0.10000053
1256,138.1816596985,41.549297,1.3333334,0.10000053
1257,138.81127548225,41.549297,0.6666667,0.10000053
1258,139.19829940825002,40.84507,2.0,0.100000516
1259,139.27103805550001,40.84507,1.3333334,0.100000516
1260,139.4266052245,40.84507,0.6666667,0.100000516
1261,138.602714539,40.140846,2.0,0.10000051
1262,138.16494369525,40.140846,1.3333334,0.10000051
1263,138.11277771,40.140846,0.6666667,0.10000051
1264,138.4092063905,39.43662,2.0,0.1000005
1265,140.6739349365,39.43662,1.3333334,0.1000005
1266,140.324684143,39.43662,0.6666667,0.1000005
1267,137.6215286255,38.732395,2.0,0.10000049
1268,138.93846893350002,38.732395,1.3333334,0.10000049
1269,138.23887252825,38.732395,0.6666667,0.10000049
1270,138.30977630625,38.028168,2.0,0.100000486
1271,138.69618606575,38.028168,1.3333334,0.100000486
1272,139.9556999205,38.028168,0.6666667,0.100000486
1273,139.954837799,37.323944,2.0,0.10000047
1274,138.31037139900002,37.323944,1.3333334,0.10000047
1275,139.437591553,37.323944,0.6666667,0.10000047
1276,138.92404174825,42.957745,2.0,0.20000055
1277,138.3392601015,42.957745,1.3333334,0.20000055
1278,138.29046630875,42.957745,0.6666667,0.20000055
1279,138.33863830575,42.25352,2.0,0.20000054
1280,138.337600708,42.25352,1.3333334,0.20000054
1281,138.3108291625,42.25352,0.6666667,0.20000054
1282,138.26586151150002,41.549297,2.0,0.20000052
1283,138.25531005875,41.549297,1.3333334,0.20000052
1284,137.7702560425,41.549297,0.6666667,0.20000052
1285,137.8043289185,40.84507,2.0,0.20000052
1286,138.3381118775,40.84507,1.3333334,0.20000052
1287,138.35080718975001,40.84507,0.6666667,0.20000052
1288,138.3382949825,40.140846,2.0,0.20000051
1289,136.49702453650002,40.140846,1.3333334,0.20000051
1290,137.47644042975,40.140846,0.6666667,0.20000051
1291,138.5004692075,39.43662,2.0,0.20000051
1292,138.776584625,39.43662,1.3333334,0.20000051
1293,138.6848526,39.43662,0.6666667,0.20000051
1294,138.36339569075,38.732395,2.0,0.2000005
1295,138.36517333950002,38.732395,1.3333334,0.2000005
1296,138.2436294555,38.732395,0.6666667,0.2000005
1297,138.0651397705,38.028168,2.0,0.20000048
1298,138.21038818350002,38.028168,1.3333334,0.20000048
1299,138.78319168075,38.028168,0.6666667,0.20000048
1300,138.6961746215,37.323944,2.0,0.20000048
1301,138.3623542785,37.323944,1.3333334,0.20000048
1302,138.364616394,37.323944,0.6666667,0.20000048
1303,138.70540618849998,46.478874,2.0,5.8972637e-07
1304,138.42728042599998,46.478874,1.3333334,5.8972637e-07
1305,138.75965118425,46.478874,0.6666667,5.8972637e-07
1306,138.85474777225,46.478874,0.0,5.8972637e-07
1307,138.339050293,46.478874,-0.6666667,5.8972637e-07
1308,138.33774566649998,46.478874,-1.3333334,5.8972637e-07
1309,138.3367385865,46.478874,-2.0,5.8972637e-07
1310,139.0962753295,45.774647,2.0,5.807911e-07
1311,137.97406005875,45.774647,1.3333334,5.807911e-07
1312,138.425769806,45.774647,0.6666667,5.807911e-07
1313,139.16740036,45.774647,0.0,5.807911e-07
1314,138.3263282775,45.774647,-0.6666667,5.807911e-07
1315,138.31350708,45.774647,-1.3333334,5.807911e-07
1316,138.30946350099998,45.774647,-2.0,5.807911e-07
1317,139.3177261355,45.070423,2.0,5.718559e-07
1318,134.92226409925001,45.070423,1.3333334,5.718559e-07
1319,135.17986679075,45.070423,0.6666667,5.718559e-07
1320,140.706626892,45.070423,0.0,5.718559e-07
1321,139.95772171,45.070423,-0.6666667,5.718559e-07
1322,138.32258987425,45.070423,-1.3333334,5.718559e-07
1323,138.310058594,45.070423,-2.0,5.718559e-07
1324,138.2008132935,44.366196,2.0,5.629206e-07
1325,135.788520813,44.366196,1.3333334,5.629206e-07
1326,136.44025421150002,44.366196,0.6666667,5.629206e-07
1327,140.5360069275,44.366196,0.0,5.629206e-07
1328,139.960166931,44.366196,-0.6666667,5.629206e-07
1329,138.3453941345,44.366196,-1.3333334,5.629206e-07
1330,138.3381881715,44.366196,-2.0,5.629206e-07
1331,138.39157104499998,43.661972,2.0,5.539854e-07
1332,138.40923309325,43.661972,1.3333334,5.539854e-07
1333,138.35773468025,43.661972,0.6666667,5.539854e-07
1334,138.30845260625,43.661972,0.0,5.539854e-07
1335,138.333984375,43.661972,-0.6666667,5.539854e-07
1336,138.352657318,43.661972,-1.3333334,5.539854e-07
1337,138.3656768795,43.661972,-2.0,5.539854e-07
1338,138.284667969,47.183098,2.0,0.1000006
1339,138.28144073475,47.183098,1.3333334,0.1000006
1340,138.33013153075,47.183098,0.6666667,0.1000006
1341,138.3586273195,47.183098,0.0,0.1000006
1342,138.334487915,46.478874,2.0,0.10000059
1343,138.349407196,46.478874,1.3333334,0.10000059
1344,138.36504364,46.478874,0.6666667,0.10000059
1345,138.380455017,46.478874,0.0,0.10000059
1346,138.38789749125,46.478874,-0.6666667,0.10000059
1347,138.3490104675,46.478874,-1.3333334,0.10000059
1348,138.32270813,46.478874,-2.0,0.10000059
1349,138.34051895125,45.774647,2.0,0.10000058
1350,138.337562561,45.774647,1.3333334,0.10000058
1351,138.33682251,45.774647,0.6666667,0.10000058
1352,138.3029022215,45.774647,0.0,0.10000058
1353,138.2985038755,45.774647,-0.6666667,0.10000058
1354,138.3340759275,45.774647,-1.3333334,0.10000058
1355,138.36096572875,45.774647,-2.0,0.10000058
1356,138.34392929075,45.070423,2.0,0.100000575
1357,138.324607849,45.070423,1.3333334,0.100000575
1358,138.3092422485,45.070423,0.6666667,0.100000575
1359,138.36241149900002,45.070423,0.0,0.100000575
1360,138.48381042475,45.070423,-0.6666667,0.100000575
1361,138.45962142925,45.070423,-1.3333334,0.100000575
1362,138.32449722275,45.070423,-2.0,0.100000575
1363,138.33052444449999,44.366196,2.0,0.10000056
1364,138.31798171975,44.366196,1.3333334,0.10000056
1365,138.309875488,44.366196,0.6666667,0.10000056
1366,138.15890502949998,44.366196,0.0,0.10000056
1367,138.26825714125,44.366196,-0.6666667,0.10000056
1368,138.3675956725,44.366196,-1.3333334,0.10000056
1369,138.33563232400002,44.366196,-2.0,0.10000056
1370,138.313682556,43.661972,2.0,0.10000055
1371,138.32588958725,43.661972,1.3333334,0.10000055
1372,138.3380966185,43.661972,0.6666667,0.10000055
1373,138.189849854,43.661972,0.0,0.10000055
1374,138.26098251374998,43.661972,-0.6666667,0.10000055
1375,138.28812026974998,43.661972,-1.3333334,0.10000055
1376,138.2921791075,43.661972,-2.0,0.10000055
1377,138.34359359725,47.183098,2.0,0.2000006
1378,138.356323242,47.183098,1.3333334,0.2000006
1379,138.3656921385,47.183098,0.6666667,0.2000006
1380,138.2342987065,47.183098,0.0,0.2000006
1381,138.29927063025,46.478874,2.0,0.2000006
1382,138.32943344125,46.478874,1.3333334,0.2000006
1383,138.310005188,46.478874,0.6666667,0.2000006
1384,138.353225708,46.478874,0.0,0.2000006
1385,138.37306213375,46.478874,-0.6666667,0.2000006
1386,138.36505889900002,46.478874,-1.3333334,0.2000006
1387,138.29788208050002,46.478874,-2.0,0.2000006
1388,138.308132172,45.774647,2.0,0.20000058
1389,138.32262802125,45.774647,1.3333334,0.20000058
1390,138.38534164425,45.774647,0.6666667,0.20000058
1391,138.467857361,45.774647,0.0,0.20000058
1392,138.5057296755,45.774647,-0.6666667,0.20000058
1393,138.51955413849998,45.774647,-1.3333334,0.20000058
1394,138.3389053345,45.774647,-2.0,0.20000058
1395,138.34623718275,45.070423,2.0,0.20000057
1396,138.340221405,45.070423,1.3333334,0.20000057
1397,138.3974075315,45.070423,0.6666667,0.20000057
1398,138.36188507075,45.070423,0.0,0.20000057
1399,133.10078239450002,45.070423,-0.6666667,0.20000057
1400,127.9457359315,45.070423,-1.3333334,0.20000057
1401,138.3602371215,45.070423,-2.0,0.20000057
1402,138.34791564925,44.366196,2.0,0.20000057
1403,138.33757019025,44.366196,1.3333334,0.20000057
1404,138.2507362365,44.366196,0.6666667,0.20000057
1405,138.062160492,44.366196,0.0,0.20000057
1406,127.59030151375,44.366196,-0.6666667,0.20000057
1407,117.218208313,44.366196,-1.3333334,0.20000057
1408,138.33657074,44.366196,-2.0,0.20000057
1409,138.3258132935,43.661972,2.0,0.20000055
1410,138.3358154295,43.661972,1.3333334,0.20000055
1411,138.26771545399998,43.661972,0.6666667,0.20000055
1412,138.31073761,43.661972,0.0,0.20000055
1413,133.1590099335,43.661972,-0.6666667,0.20000055
1414,127.87540054300001,43.661972,-1.3333334,0.20000055
1415,138.33808136,43.661972,-2.0,0.20000055
1416,138.3381118775,50.0,2.0,6.3440257e-07
1417,138.33721160875,50.0,1.3333334,6.3440257e-07
1418,138.44632720925,50.0,0.6666667,6.3440257e-07
1419,138.6889419555,50.0,-5.5511150000000004e-17,6.3440257e-07
1420,137.77894592274998,50.0,-0.6666667,6.3440257e-07
1421,136.7363815305,50.0,-1.3333334,6.3440257e-07
1422,138.3371047975,50.0,-2.0,6.3440257e-07
1423,138.33708953849998,49.295776,2.0,6.2546735e-07
1424,138.33769607525,49.295776,1.3333334,6.2546735e-07
1425,138.27733993525,49.295776,0.6666667,6.2546735e-07
1426,138.2547187805,49.295776,0.0,6.2546735e-07
1427,138.36322021475002,49.295776,-0.6666667,6.2546735e-07
1428,138.433364868,49.295776,-1.3333334,6.2546735e-07
1429,138.337715149,49.295776,-2.0,6.2546735e-07
1430,138.33772277825,48.59155,2.0,6.165321e-07
1431,138.33734893775,48.59155,1.3333334,6.165321e-07
1432,138.04126358025002,48.59155,0.6666667,6.165321e-07
1433,138.1206207275,48.59155,0.0,6.165321e-07
1434,136.63899612400002,48.59155,-0.6666667,6.165321e-07
1435,134.7823104855,48.59155,-1.3333334,6.165321e-07
1436,138.3373641965,48.59155,-2.0,6.165321e-07
1437,138.33735656725,47.887325,2.0,6.0759686e-07
1438,138.3375816345,47.887325,1.3333334,6.0759686e-07
1439,138.3629608155,47.887325,0.6666667,6.0759686e-07
1440,138.733833313,47.887325,0.0,6.0759686e-07
1441,135.8163414,47.887325,-0.6666667,6.0759686e-07
1442,132.55312347400002,47.887325,-1.3333334,6.0759686e-07
1443,138.250564575,47.887325,-2.0,6.0759686e-07
1444,138.23476028425,47.183098,2.0,5.986616e-07
1445,138.220954895,47.183098,1.3333334,5.986616e-07
1446,138.64616012575,47.183098,0.6666667,5.986616e-07
1447,138.66986846925,47.183098,0.0,5.986616e-07
1448,137.74639511125,47.183098,-0.6666667,5.986616e-07
1449,137.222419739,47.183098,-1.3333334,5.986616e-07
1450,138.2047424315,47.183098,-2.0,5.986616e-07
1451,138.15437316875,50.0,2.0,0.100000635
1452,138.104003906,50.0,1.3333334,0.100000635
1453,138.2304840085,50.0,0.6666667,0.100000635
1454,137.9079170225,50.0,-1.6653345e-16,0.100000635
1455,137.5558166505,50.0,-0.6666667,0.100000635
1456,137.652763367,50.0,-1.3333334,0.100000635
1457,138.219161987,50.0,-2.0,0.100000635
1458,138.25391006450002,49.295776,2.0,0.10000063
1459,138.2987937925,49.295776,1.3333334,0.10000063
1460,138.1642417905,49.295776,0.6666667,0.10000063
1461,138.1678466795,49.295776,0.0,0.10000063
1462,139.94893264774998,49.295776,-0.6666667,0.10000063
1463,141.5817260745,49.295776,-1.3333334,0.10000063
1464,138.321166992,49.295776,-2.0,0.10000063
1465,138.389503479,48.59155,2.0,0.10000062
1466,138.4624938965,48.59155,1.3333334,0.10000062
1467,138.67842864975,48.59155,0.6666667,0.10000062
1468,138.4936790465,48.59155,0.0,0.10000062
1469,140.56309890749998,48.59155,-0.6666667,0.10000062
1470,143.0285491945,48.59155,-1.3333334,0.10000062
1471,138.3430480955,48.59155,-2.0,0.10000062
1472,138.34675216675,47.887325,2.0,0.100000605
1473,138.35223388675,47.887325,1.3333334,0.100000605
1474,138.3054847715,47.887325,0.6666667,0.100000605
1475,137.66282272325,47.887325,0.0,0.100000605
1476,137.2122306825,47.887325,-0.6666667,0.100000605
1477,137.35577392599998,47.887325,-1.3333334,0.100000605
1478,138.324821472,47.887325,-2.0,0.100000605
1479,138.32616806024998,47.183098,-0.6666667,0.1000006
1480,138.32314682,47.183098,-1.3333334,0.1000006
1481,137.69909286475,47.183098,-2.0,0.1000006
1482,137.76872634875,50.0,2.0,0.20000064
1483,137.221851349,50.0,1.3333334,0.20000064
1484,135.98565673849998,50.0,0.6666667,0.20000064
1485,138.3477478025,50.0,2.220446e-16,0.20000064
1486,138.34663009625,50.0,-0.6666667,0.20000064
1487,138.34577941875,50.0,-1.3333334,0.20000064
1488,138.37055206275,50.0,-2.0,0.20000064
1489,139.15974807725001,49.295776,2.0,0.20000063
1490,138.835144043,49.295776,1.3333334,0.20000063
1491,137.7458496095,49.295776,0.6666667,0.20000063
1492,138.329711914,49.295776,0.0,0.20000063
1493,138.330543518,49.295776,-0.6666667,0.20000063
1494,138.33117675775,49.295776,-1.3333334,0.20000063
1495,138.434890747,49.295776,-2.0,0.20000063
1496,139.3639564515,48.59155,2.0,0.20000061
1497,139.405509949,48.59155,1.3333334,0.20000061
1498,138.6219100955,48.59155,0.6666667,0.20000061
1499,138.34357452400002,48.59155,0.0,0.20000061
1500,138.34290313725,48.59155,-0.6666667,0.20000061
1501,138.34240722675,48.59155,-1.3333334,0.20000061
1502,137.77820968650002,48.59155,-2.0,0.20000061
1503,138.7715301515,47.887325,2.0,0.20000061
1504,140.6084899905,47.887325,1.3333334,0.20000061
1505,140.88775634799998,47.887325,0.6666667,0.20000061
1506,138.336502075,47.887325,0.0,0.20000061
1507,138.33870697,47.887325,-0.6666667,0.20000061
1508,138.340789795,47.887325,-1.3333334,0.20000061
1509,137.7772521975,47.887325,-2.0,0.20000061
1510,138.818939209,47.183098,-0.6666667,0.2000006
1511,140.982574463,47.183098,-1.3333334,0.2000006
1512,141.541107178,47.183098,-2.0,0.2000006
